@relation 'heart_disease-weka.filters.unsupervised.attribute.ReplaceMissingValues-weka.filters.unsupervised.attribute.Normalize-S1.0-T0.0-weka.filters.supervised.instance.Resample-B1.0-S1-Z80.0-weka.filters.supervised.instance.SMOTE-C1-K5-P0.0-S1-weka.filters.unsupervised.attribute.Remove-V-R18,3,13,12,14,16,2,7,5-6,11,10,8,21'

@attribute 'Fasting Blood Sugar' numeric
@attribute 'Blood Pressure' numeric
@attribute 'Alcohol Consumption' {High,Medium,Low,None}
@attribute 'High LDL Cholesterol' {No,Yes}
@attribute 'Stress Level' {Medium,High,Low}
@attribute 'Sugar Consumption' {Medium,Low,High}
@attribute Gender {Male,Female}
@attribute 'Family Heart Disease' {Yes,No}
@attribute 'Exercise Habits' {High,Low,Medium}
@attribute Smoking {Yes,No}
@attribute 'Low HDL Cholesterol' {Yes,No}
@attribute 'High Blood Pressure' {Yes,No}
@attribute Diabetes {No,Yes}
@attribute 'Heart Disease Status' {No,Yes}

@data
0.7875,0.316667,Medium,No,Low,Medium,Female,No,High,No,No,Yes,Yes,No
0.65,0.066667,None,No,High,Low,Female,Yes,High,Yes,No,No,No,No
0.8625,0.716667,Low,Yes,High,Medium,Male,Yes,Medium,No,No,No,No,No
0.8625,0.333333,None,No,Medium,Low,Male,Yes,Medium,Yes,No,Yes,Yes,No
0.35,0.366667,None,Yes,Medium,Low,Female,Yes,Low,Yes,Yes,Yes,No,No
0.775,0.066667,Low,Yes,Medium,High,Male,Yes,Medium,No,Yes,No,Yes,No
0.3875,0.083333,High,No,High,Low,Male,Yes,Medium,No,No,No,No,No
0.2125,0.1,None,Yes,High,Medium,Female,Yes,Low,Yes,Yes,Yes,No,No
0.6625,0.833333,High,Yes,Low,Medium,Female,No,Low,Yes,No,Yes,No,No
0.675,0.666667,Medium,Yes,Medium,Medium,Male,Yes,Medium,No,Yes,Yes,No,No
0.475,0.233333,Medium,Yes,Low,Medium,Male,Yes,High,Yes,Yes,Yes,No,No
0.5125,1,Low,No,Low,Medium,Female,No,Medium,Yes,No,No,Yes,No
0.875,0.966667,High,No,Low,Low,Female,Yes,Medium,Yes,Yes,No,Yes,No
0.9,0.783333,Medium,Yes,High,High,Female,No,High,No,No,No,No,No
0.1,0.783333,Medium,Yes,Low,High,Male,Yes,Low,Yes,Yes,No,Yes,No
0.7375,0.233333,Medium,Yes,High,Medium,Male,No,Low,No,No,No,No,No
0.1375,0.866667,Medium,Yes,High,High,Female,No,Low,Yes,No,Yes,Yes,No
0.2,0.983333,Medium,Yes,High,High,Male,No,Medium,Yes,Yes,Yes,Yes,No
0.0375,0.333333,High,No,Medium,Medium,Female,Yes,Low,Yes,No,No,No,No
0.675,0.166667,Medium,Yes,Medium,Medium,Female,Yes,High,No,No,Yes,No,No
0.275,0.85,Low,Yes,Low,Low,Male,No,High,No,Yes,No,Yes,No
0.4125,0.816667,Medium,No,Low,High,Male,No,High,Yes,Yes,Yes,Yes,No
0.2625,0.65,None,Yes,Medium,Medium,Female,Yes,Low,Yes,No,Yes,Yes,No
0.075,0.8,None,No,Medium,Low,Female,Yes,Medium,Yes,Yes,Yes,No,No
0.775,0.233333,None,Yes,Medium,Low,Male,No,Medium,Yes,Yes,Yes,Yes,No
0.725,0.25,Medium,Yes,High,High,Male,Yes,Low,No,Yes,Yes,No,No
0.475,0.866667,None,Yes,Low,Medium,Male,Yes,Medium,Yes,No,Yes,Yes,No
0.125,0.4,Medium,Yes,Low,Medium,Female,Yes,Medium,Yes,No,No,Yes,No
0.3,0.75,High,No,High,Low,Male,Yes,High,No,Yes,Yes,No,No
0.1,0.583333,Low,Yes,Low,Medium,Male,Yes,Low,Yes,Yes,No,Yes,No
0.5875,0.55,Medium,No,Medium,Low,Male,No,High,No,No,No,No,No
0.6125,0.35,Low,Yes,Low,Medium,Female,Yes,Low,Yes,Yes,No,No,No
0.175,0.916667,Medium,No,High,Low,Female,No,Low,No,No,No,No,No
0.5125,0.05,High,Yes,High,High,Male,No,Medium,Yes,No,No,Yes,No
0.425,0.65,Medium,No,Low,High,Male,No,Medium,No,No,Yes,Yes,No
0.6875,0.766667,Medium,No,Low,Medium,Female,Yes,Low,Yes,No,No,No,No
0.3625,0.433333,None,No,Low,Low,Female,Yes,Low,No,Yes,Yes,Yes,No
0.4375,0.6,Medium,Yes,Low,Low,Female,Yes,Low,No,Yes,No,No,No
0.0875,0.616667,Medium,No,Low,Low,Female,Yes,Low,Yes,Yes,Yes,Yes,No
0.4125,0.883333,None,Yes,Low,Medium,Male,No,High,No,No,Yes,No,No
0.15,0.233333,High,Yes,High,High,Female,Yes,High,No,Yes,No,Yes,No
0.2625,0.333333,Medium,No,Low,Medium,Male,Yes,Medium,No,Yes,Yes,Yes,No
0.325,0.516667,High,No,High,Medium,Male,No,Low,Yes,No,Yes,Yes,No
0.375,0.066667,None,No,Medium,High,Male,Yes,Medium,Yes,Yes,Yes,No,No
0.7875,0.366667,Low,Yes,Low,Low,Female,Yes,Low,Yes,Yes,No,Yes,No
0.75,0.566667,Low,Yes,Medium,Low,Male,No,Medium,No,No,No,No,No
0.1125,0.116667,Medium,No,Low,Low,Female,Yes,Low,No,Yes,No,Yes,No
0.75,0.9,High,Yes,Medium,Low,Male,Yes,Low,No,No,Yes,No,No
0.4875,0.1,High,Yes,Medium,Low,Female,No,Medium,No,Yes,No,Yes,No
0.0375,0.3,Low,No,High,High,Male,No,Low,No,No,No,Yes,No
0.9625,1,None,No,Low,Medium,Male,No,Low,Yes,Yes,No,Yes,No
0.9125,0.9,Medium,Yes,Medium,Low,Male,No,Medium,Yes,No,No,No,No
0.0875,0.7,High,Yes,Medium,Low,Female,Yes,High,No,No,Yes,Yes,No
0.5625,0.816667,None,No,High,High,Female,Yes,High,Yes,No,No,Yes,No
0.7375,0.616667,High,No,Medium,Medium,Male,Yes,Low,Yes,No,Yes,Yes,No
0.6125,0.95,None,No,Medium,Medium,Male,No,Medium,No,No,Yes,Yes,No
0,0.316667,High,Yes,Low,Low,Female,No,Medium,Yes,Yes,Yes,No,No
0.05,0.433333,Medium,Yes,Low,Low,Female,Yes,Low,No,No,No,No,No
0.0875,0.483333,Medium,Yes,Medium,Low,Male,No,High,No,Yes,No,No,No
0.275,0.933333,Medium,No,High,Medium,Male,No,Low,No,No,No,No,No
0.0625,0.9,Medium,No,High,High,Male,No,Medium,Yes,No,No,Yes,No
0.9875,0.883333,Medium,Yes,High,Medium,Male,Yes,High,No,Yes,No,Yes,No
0.6875,0.933333,Low,Yes,Medium,Low,Male,No,High,No,No,No,No,No
0.4875,0.733333,Low,No,High,Medium,Female,Yes,Low,No,Yes,No,No,No
0.1625,0.716667,Low,Yes,Medium,Low,Male,Yes,Medium,No,No,No,No,No
0.4875,0.683333,Medium,Yes,Medium,Low,Male,No,Low,No,No,No,Yes,No
0.675,0.65,High,Yes,Medium,Medium,Female,No,Medium,No,Yes,Yes,Yes,No
0.0375,0.033333,Low,No,High,Medium,Male,Yes,High,No,Yes,No,No,No
0.0625,0.583333,Low,Yes,High,High,Male,No,High,Yes,No,No,No,No
0.7375,0.583333,None,No,High,Low,Male,Yes,High,Yes,Yes,No,Yes,No
0.05,0.083333,High,Yes,Low,Medium,Female,No,High,No,Yes,No,Yes,No
0.1875,0.916667,Low,No,Low,Medium,Female,Yes,Medium,Yes,Yes,Yes,No,No
0.3875,0.883333,High,Yes,High,Low,Female,No,High,Yes,No,No,No,No
0.4,0.833333,High,Yes,High,High,Male,No,High,No,No,Yes,Yes,No
0.9125,0.55,High,No,High,Medium,Female,No,Medium,Yes,Yes,Yes,Yes,No
0.2625,0.416667,None,No,Medium,High,Female,No,Medium,Yes,No,Yes,No,No
0.9875,0.05,Medium,Yes,High,High,Male,No,Low,No,No,Yes,No,No
0.45,0.35,High,Yes,High,Low,Male,Yes,Medium,No,Yes,Yes,Yes,No
0.0625,0.583333,High,No,High,Low,Male,No,Low,No,No,Yes,No,No
0.7125,0.183333,High,Yes,Medium,High,Male,No,Medium,No,Yes,No,Yes,No
0.7625,0.266667,High,Yes,Low,Medium,Male,Yes,Low,Yes,Yes,Yes,No,No
0.85,0.3,None,No,Low,Low,Female,No,Medium,Yes,No,Yes,No,No
0.125,0.1,Medium,No,Low,Low,Female,No,High,Yes,No,No,No,No
0.525,0.833333,Medium,No,Low,High,Male,Yes,Medium,No,Yes,No,Yes,No
0.5125,0.283333,Low,Yes,High,High,Female,No,Low,Yes,Yes,Yes,No,No
0,0.616667,Medium,Yes,Low,High,Female,Yes,Low,No,No,Yes,No,No
0.85,0.033333,Low,Yes,Low,Low,Female,No,Medium,Yes,Yes,Yes,Yes,No
0.2125,0.416667,None,Yes,Low,Medium,Female,No,High,No,No,No,Yes,No
0.025,0.416667,Low,Yes,Medium,High,Female,Yes,High,Yes,Yes,Yes,No,No
0.625,0.35,Low,No,Medium,High,Female,Yes,High,Yes,No,No,No,No
0.825,0.283333,None,Yes,Medium,Low,Female,Yes,Medium,Yes,Yes,Yes,Yes,No
0.6625,0.233333,Medium,Yes,High,Low,Male,No,Low,No,No,Yes,No,No
0.8375,0.066667,Low,No,Low,High,Male,No,Medium,Yes,No,No,No,No
0.6,0.85,Medium,Yes,Medium,Medium,Female,Yes,Low,Yes,No,Yes,Yes,No
0.5875,0.55,High,No,High,Low,Female,No,High,No,No,No,Yes,No
0.4875,0.7,Medium,No,Low,Low,Female,Yes,High,Yes,No,Yes,No,No
0.5625,0.933333,None,No,Low,Medium,Male,Yes,Medium,Yes,Yes,Yes,Yes,No
0.725,0.316667,Medium,Yes,Medium,High,Female,No,High,Yes,No,No,No,No
0.675,0.4,None,Yes,Medium,Low,Male,Yes,Medium,Yes,No,Yes,No,No
0.325,0.583333,High,No,Medium,Medium,Male,Yes,High,Yes,Yes,No,Yes,No
0.4375,0.316667,High,No,Medium,High,Male,No,Low,No,Yes,No,No,No
0.7125,0.95,Low,No,Low,High,Female,Yes,Medium,Yes,No,Yes,Yes,No
0.0625,0.266667,None,No,Medium,Low,Male,Yes,Medium,Yes,No,Yes,No,No
0.7,0.75,Low,Yes,Low,High,Male,No,High,No,Yes,Yes,No,No
0.425,0.483333,High,Yes,Low,Medium,Male,Yes,Medium,No,Yes,No,Yes,No
0,0.6,High,No,High,High,Female,Yes,High,No,No,No,No,No
0.7125,0.483333,High,No,Medium,High,Male,No,Medium,No,No,No,No,No
0.925,0.883333,High,No,High,High,Male,Yes,Medium,Yes,No,Yes,No,No
0.6375,0.7,None,No,Low,High,Male,No,Low,No,Yes,No,Yes,No
0.8375,0.933333,None,No,High,High,Female,No,Low,Yes,No,No,Yes,No
0.0125,0.733333,High,Yes,Low,Low,Male,Yes,High,No,No,Yes,No,No
0.35,0.85,Medium,No,High,High,Male,Yes,Medium,No,Yes,No,No,No
0.9875,0.883333,Medium,Yes,High,Medium,Male,Yes,High,No,Yes,No,Yes,No
0.6875,0.316667,Low,No,High,Medium,Male,No,Low,Yes,Yes,Yes,Yes,No
0.5125,0.3,None,No,High,Low,Female,Yes,Low,No,No,No,Yes,No
0.55,0.783333,None,Yes,Medium,Low,Female,Yes,High,Yes,No,No,Yes,No
0.9625,0.25,Low,Yes,High,Low,Female,Yes,High,Yes,No,No,No,No
0.6625,0.466667,None,No,Medium,Medium,Female,Yes,High,Yes,No,Yes,No,No
0.9625,0.216667,Low,Yes,Low,Low,Female,No,Low,No,No,No,Yes,No
0.325,0.35,None,No,Low,High,Female,Yes,Low,No,Yes,No,Yes,No
0.625,0.983333,Medium,Yes,Medium,High,Female,Yes,High,No,No,Yes,Yes,No
0.2625,0.633333,None,No,High,Low,Female,No,Low,Yes,Yes,Yes,No,No
0.0375,0.383333,Low,No,High,High,Male,Yes,High,No,No,No,No,No
0.6875,0.183333,Low,No,High,Medium,Female,Yes,Medium,No,No,No,No,No
0.175,0.35,High,Yes,Medium,High,Female,No,High,Yes,No,Yes,No,No
0.975,0.333333,None,No,High,High,Female,Yes,High,Yes,Yes,No,Yes,No
0.4125,0.8,None,Yes,Medium,Low,Male,Yes,High,Yes,No,No,No,No
0.125,0.933333,High,Yes,Medium,Medium,Male,No,High,No,No,Yes,Yes,No
0.875,0.166667,Medium,No,Medium,Medium,Male,Yes,High,No,No,Yes,Yes,No
0.475,0.666667,High,Yes,Medium,Low,Male,No,Low,No,No,No,No,No
0.8875,0.316667,Low,Yes,High,High,Male,No,High,No,No,No,No,No
0.8375,0.9,High,Yes,Medium,Low,Male,No,Low,No,No,No,No,No
0.4,0.1,Medium,No,Medium,High,Male,No,High,Yes,Yes,No,Yes,No
0.65,0.766667,Low,Yes,High,High,Female,Yes,High,Yes,No,No,Yes,No
0.6,0.05,None,Yes,High,High,Male,Yes,Low,Yes,Yes,No,No,No
0.0125,0.733333,Medium,No,Low,Low,Male,No,Low,No,Yes,No,No,No
0.1125,0.583333,High,No,Low,High,Male,No,Low,No,No,Yes,No,No
0.2125,0.55,Low,No,High,Low,Male,No,High,No,Yes,No,No,No
0.2875,0.583333,High,Yes,High,Low,Female,No,Medium,No,No,Yes,Yes,No
0.7,0.383333,Low,No,Medium,Low,Female,Yes,Medium,Yes,No,No,Yes,No
0.125,0.683333,Medium,No,High,Medium,Female,Yes,Medium,No,Yes,No,Yes,No
0.5125,0.083333,Low,Yes,Medium,High,Male,Yes,High,No,No,Yes,No,No
0.9125,0.183333,None,Yes,High,Medium,Male,No,Medium,No,Yes,No,No,No
0.8125,0.4,None,No,Low,High,Female,No,High,Yes,No,No,No,No
0.3875,0.233333,Low,No,Medium,High,Female,Yes,High,Yes,No,Yes,Yes,No
0.825,0.633333,Low,Yes,Low,High,Male,No,High,Yes,No,No,Yes,No
0.675,0.5,None,No,Medium,High,Female,No,Low,Yes,Yes,Yes,Yes,No
0.0625,0.483333,Medium,Yes,High,Medium,Female,No,Low,Yes,No,No,Yes,No
0.1,0.266667,Low,Yes,Medium,High,Female,Yes,High,No,Yes,Yes,No,No
0.5625,0.95,Low,Yes,Low,Medium,Female,No,Medium,Yes,No,No,Yes,No
1,0.916667,Low,Yes,High,Low,Male,Yes,High,Yes,No,Yes,No,No
0.35,0.7,None,No,Low,Low,Female,Yes,Low,No,No,No,Yes,No
0.825,0.083333,Low,No,Medium,High,Female,Yes,Medium,Yes,Yes,No,No,No
0.975,0.616667,Low,No,Medium,Low,Female,Yes,Medium,Yes,No,No,No,No
0.2625,0.5,High,Yes,Low,High,Male,Yes,Low,No,Yes,No,Yes,No
0.1,0.116667,Low,No,High,High,Female,No,High,No,No,No,Yes,No
0,0.983333,High,Yes,Medium,Low,Female,No,Low,Yes,No,No,No,No
0,0.116667,None,Yes,High,Low,Female,No,Medium,Yes,Yes,No,Yes,No
0.3625,0.8,High,No,High,High,Male,No,High,Yes,No,Yes,Yes,No
0.6625,0.2,None,Yes,Medium,High,Female,No,Medium,Yes,Yes,Yes,No,No
0.75,0.883333,None,No,High,Medium,Female,No,Medium,Yes,No,No,No,No
0.3375,0.666667,None,Yes,High,High,Female,No,High,No,Yes,No,No,No
0.5875,0.9,None,No,Medium,Medium,Male,No,Low,No,No,Yes,Yes,No
0.8,0.283333,None,No,Medium,Low,Female,Yes,High,No,Yes,Yes,No,No
0.1875,0.966667,Medium,No,Low,Medium,Male,Yes,Low,Yes,No,Yes,No,No
0.0375,0.333333,None,Yes,Medium,High,Male,No,Low,Yes,Yes,Yes,No,No
0.9875,0.166667,Low,No,Low,Low,Female,Yes,Low,No,No,Yes,Yes,No
0.875,0.916667,Low,Yes,High,Medium,Female,No,Low,No,Yes,No,No,No
0.025,0.2,Low,No,Low,High,Male,No,Medium,Yes,Yes,No,Yes,No
0.55,0.283333,Medium,No,High,High,Female,Yes,Low,Yes,No,No,No,No
0.2,0.383333,Low,No,Low,Low,Male,No,Low,No,No,No,No,No
0.475,0.366667,High,Yes,Low,Medium,Male,No,High,No,No,No,Yes,No
0.15,0.283333,None,Yes,Medium,Low,Male,Yes,High,No,Yes,Yes,Yes,No
0.9875,0.933333,None,Yes,Medium,Medium,Female,No,Low,Yes,Yes,No,No,No
0.3875,0.483333,None,No,Medium,High,Male,No,Low,No,No,No,No,No
0.1375,1,High,Yes,Medium,High,Female,No,High,Yes,Yes,No,Yes,No
0.7625,0.833333,Medium,No,Medium,Low,Female,Yes,High,Yes,No,Yes,No,No
0.1375,0.233333,High,No,Low,High,Female,No,Medium,No,No,Yes,No,No
0.925,0.7,High,No,Medium,Low,Female,No,High,No,No,No,Yes,No
0.0875,0.35,High,Yes,Medium,Medium,Male,Yes,High,Yes,Yes,Yes,Yes,No
0.625,0.45,High,No,Low,Medium,Female,Yes,High,Yes,Yes,No,No,No
0.675,0.666667,Medium,No,Low,Low,Male,No,High,No,Yes,No,Yes,No
0.55,0.233333,High,No,High,Low,Female,No,High,No,Yes,No,No,No
0.525,0.933333,Medium,No,Low,Low,Male,Yes,Medium,Yes,No,No,Yes,No
0.6375,0.283333,Medium,No,Low,High,Female,No,Medium,No,No,No,No,No
0.975,0.35,Medium,Yes,Medium,High,Male,No,Medium,Yes,Yes,No,Yes,No
0.8875,0.533333,Low,No,Low,Low,Male,Yes,Low,Yes,Yes,No,Yes,No
0.2375,0.833333,Low,Yes,High,Medium,Male,Yes,Low,No,Yes,No,No,No
0.5125,0.866667,Medium,No,Medium,Medium,Male,Yes,Low,Yes,Yes,Yes,Yes,No
0.225,0.716667,Low,Yes,Medium,Medium,Female,No,Medium,Yes,No,No,No,No
0.8625,0.616667,Low,No,Low,High,Female,No,Low,No,Yes,No,Yes,No
0.3625,0.533333,High,No,Low,Medium,Female,No,High,Yes,No,Yes,No,No
0.15,0.6,None,Yes,Medium,Low,Male,No,Low,No,Yes,No,No,No
0.95,0.383333,Medium,No,Low,Medium,Female,No,High,Yes,Yes,Yes,No,No
0.375,0.983333,High,No,High,High,Male,Yes,Medium,Yes,Yes,Yes,No,No
0.85,0.033333,High,No,Low,Medium,Male,No,Medium,No,No,Yes,No,No
0.225,0.95,Medium,No,Low,Low,Male,Yes,Medium,Yes,No,Yes,Yes,No
0.3125,0.7,Low,Yes,High,Low,Female,Yes,Medium,No,Yes,No,No,No
0.4375,0.483333,None,Yes,Medium,Low,Male,Yes,High,Yes,Yes,No,Yes,No
0.475,0.266667,None,Yes,Low,Low,Male,Yes,High,No,Yes,No,Yes,No
0.375,0.1,Low,Yes,High,Low,Male,No,High,No,Yes,Yes,No,No
0.075,0.816667,Medium,Yes,Medium,High,Female,No,Medium,Yes,No,Yes,No,No
0.7375,0.383333,None,No,High,Low,Male,No,High,Yes,No,No,No,No
0.9625,0.4,High,No,Low,Low,Female,Yes,Medium,No,No,Yes,Yes,No
0.15,0.466667,High,Yes,Low,High,Female,Yes,Low,Yes,Yes,Yes,Yes,No
0.525,0.95,None,No,Low,High,Female,No,Low,No,No,Yes,Yes,No
0.6625,0.883333,High,Yes,Medium,Low,Male,Yes,Low,Yes,No,No,No,No
0.3375,0.483333,Medium,No,Medium,Low,Female,No,High,Yes,No,No,Yes,No
0.225,0.95,Low,No,High,High,Male,Yes,Medium,Yes,No,Yes,Yes,No
0.6,0.333333,High,Yes,Low,Medium,Female,No,Low,No,No,Yes,No,No
0.95,0.233333,Medium,No,Medium,High,Female,Yes,High,Yes,No,No,Yes,No
0.3875,0.633333,None,No,Low,Low,Female,No,Medium,No,Yes,No,Yes,No
0.2625,0.616667,High,No,High,Low,Female,No,Low,Yes,No,Yes,Yes,No
0.95,0.133333,None,Yes,High,Medium,Female,No,Low,No,Yes,No,No,No
0.15,0.883333,None,Yes,Medium,High,Female,Yes,Medium,No,No,No,Yes,No
0,0.633333,None,Yes,Medium,High,Female,Yes,Low,No,No,Yes,Yes,No
0.9,0.616667,Medium,No,High,High,Female,Yes,Medium,Yes,No,Yes,No,No
0.125,0.966667,Low,No,High,Medium,Male,Yes,Low,Yes,Yes,Yes,Yes,No
0.3875,0.033333,High,No,Medium,Medium,Male,Yes,Medium,No,No,No,No,No
0.225,0.133333,None,Yes,High,Low,Male,No,High,Yes,No,Yes,No,No
0.8125,0.083333,High,Yes,High,High,Female,Yes,High,Yes,No,Yes,Yes,No
0.475,0.616667,None,No,High,Low,Male,No,Medium,Yes,No,Yes,No,No
0.4625,0.083333,Medium,Yes,Low,Medium,Female,Yes,Medium,Yes,Yes,No,No,No
0.9125,0.783333,None,No,High,Low,Male,Yes,High,No,Yes,Yes,No,No
0.025,0.05,Low,Yes,Low,Medium,Male,No,High,Yes,No,No,No,No
0.025,0.15,High,Yes,High,High,Male,No,Low,Yes,No,Yes,Yes,No
0.5,0.316667,High,No,High,Medium,Male,Yes,Low,No,No,Yes,No,No
0.0625,0.866667,Low,No,High,Medium,Male,No,High,No,No,No,No,No
0.8625,0.466667,High,No,Low,Low,Female,No,High,No,No,Yes,No,No
0.4625,0.283333,Medium,Yes,Medium,Low,Female,Yes,Low,Yes,Yes,No,Yes,No
0.1875,0.783333,None,No,Medium,High,Female,No,High,Yes,Yes,No,No,No
0.2625,0.633333,None,No,Medium,Low,Female,Yes,Medium,No,No,No,Yes,No
0.65,0.916667,Low,Yes,Medium,Low,Female,Yes,High,No,No,No,No,No
0.775,0.283333,Medium,No,High,Low,Female,No,High,Yes,Yes,Yes,No,No
0.4375,0.5,Low,No,Low,Low,Male,No,Medium,Yes,No,No,No,No
0.95,0.016667,High,Yes,High,Medium,Female,Yes,Low,Yes,No,No,Yes,No
0.8125,0.2,Low,No,Medium,High,Female,Yes,Low,Yes,Yes,Yes,No,No
0.1375,0.916667,Medium,Yes,Low,Low,Male,Yes,High,Yes,No,No,No,No
1,0.066667,High,Yes,Medium,Low,Female,No,Medium,Yes,Yes,No,Yes,No
0.9125,0.833333,High,Yes,Low,Low,Male,Yes,Low,No,No,Yes,Yes,No
0.85,0.516667,Low,Yes,High,Low,Female,Yes,Low,No,No,No,No,No
0.875,0.166667,Low,No,Medium,Low,Male,No,High,No,Yes,No,No,No
0.8875,0.266667,Medium,No,Low,High,Male,Yes,Medium,Yes,No,No,Yes,No
0,1,None,No,High,High,Female,No,Low,Yes,Yes,Yes,Yes,No
0.8,0.266667,High,No,Low,High,Female,Yes,Medium,Yes,No,Yes,Yes,No
0.2625,0.316667,Low,Yes,Low,Low,Female,Yes,High,No,No,Yes,No,No
0.7625,0.083333,High,Yes,Low,Low,Female,No,Low,Yes,No,Yes,No,No
0.4875,0.033333,Medium,No,Low,Low,Female,No,Medium,Yes,No,No,No,No
0.9125,0.583333,High,No,Low,Low,Female,No,Medium,Yes,Yes,No,Yes,No
0.6125,0.783333,High,Yes,High,Low,Male,Yes,Low,Yes,Yes,No,No,No
0.1125,0.233333,Low,Yes,High,Medium,Female,Yes,Medium,No,No,No,No,No
0.85,0.15,None,No,Low,High,Male,No,High,No,No,Yes,Yes,No
0.05,0.6,None,No,High,Medium,Male,Yes,Medium,Yes,No,No,No,No
0.2,0.466667,Low,Yes,High,Low,Male,Yes,High,No,Yes,No,Yes,No
0.4375,0.4,Medium,Yes,Medium,Medium,Male,No,High,No,Yes,Yes,No,No
0.6625,0.8,High,Yes,Medium,Low,Male,Yes,High,Yes,Yes,No,Yes,No
0.3875,0.383333,High,No,Medium,Medium,Male,Yes,Low,Yes,Yes,Yes,Yes,No
0.4875,0.6,Medium,No,High,High,Male,No,High,No,Yes,Yes,Yes,No
0.275,0.666667,Low,Yes,Medium,Medium,Male,Yes,Medium,No,Yes,No,Yes,No
0.025,0.033333,Low,No,High,High,Male,Yes,Medium,Yes,No,Yes,No,No
0.975,0.55,High,No,Medium,Medium,Female,No,High,No,Yes,No,Yes,No
0.0625,0.05,Medium,No,High,High,Female,No,Low,Yes,No,No,Yes,No
0.6375,0.9,High,No,High,High,Male,No,Medium,No,Yes,Yes,No,No
0.0875,0.5,High,Yes,Medium,Low,Male,No,Medium,No,No,Yes,Yes,No
0.7375,0.716667,None,No,High,Low,Male,No,Medium,Yes,Yes,Yes,No,No
0.925,0.216667,High,No,Medium,Medium,Male,No,Medium,No,Yes,No,Yes,No
0.7125,0.916667,Medium,Yes,Medium,Low,Female,Yes,Medium,No,Yes,No,Yes,No
0.1625,0.65,Low,No,High,Low,Female,Yes,Medium,Yes,Yes,No,No,No
0.5,0.133333,High,No,High,Low,Male,No,Low,No,No,No,No,No
0.5125,0.25,None,Yes,Medium,Medium,Female,No,High,Yes,Yes,Yes,Yes,No
0.0875,0.216667,None,Yes,Low,High,Female,Yes,High,No,Yes,Yes,Yes,No
0.7125,0.6,Medium,Yes,Medium,Medium,Male,No,High,Yes,Yes,No,Yes,No
1,0.9,Low,No,High,Medium,Male,Yes,Medium,Yes,No,Yes,No,No
0.35,0.95,High,No,High,High,Male,No,Low,No,No,No,Yes,No
0.7875,0.116667,None,Yes,High,Low,Female,No,Low,Yes,Yes,No,Yes,No
0.2125,0.683333,High,No,High,High,Male,Yes,Low,No,No,Yes,No,No
0.5875,0.2,Medium,No,Medium,Medium,Female,No,Medium,Yes,Yes,Yes,No,No
0.1375,0.983333,Low,Yes,Medium,Low,Male,No,Low,Yes,No,Yes,Yes,No
0.9875,0.616667,None,No,High,High,Female,No,High,Yes,No,Yes,No,No
0.75,0.516667,Low,No,Medium,High,Male,Yes,High,Yes,No,Yes,No,No
0.275,0.216667,High,No,Low,Medium,Female,Yes,Medium,No,Yes,No,No,No
0.475,0.1,None,No,Medium,Medium,Female,No,High,Yes,Yes,Yes,No,No
0.4625,0.866667,High,Yes,Low,High,Male,Yes,Medium,Yes,No,No,No,No
0.2125,0.9,High,Yes,High,Low,Male,Yes,Medium,No,Yes,Yes,No,No
0.7125,0.35,Medium,No,Medium,Low,Male,Yes,Medium,No,No,No,Yes,No
0.2125,0.733333,High,No,Low,Medium,Male,No,Medium,No,No,Yes,Yes,No
0.25,0.483333,Medium,No,Medium,Medium,Male,Yes,Low,No,No,No,No,No
0.1375,0.233333,High,No,Low,High,Female,No,Medium,No,No,Yes,No,No
0.35,0.416667,Low,No,High,Low,Male,No,Medium,No,Yes,No,No,No
0.7,0.2,High,Yes,Medium,Low,Female,No,Medium,Yes,No,Yes,Yes,No
0.5,0.016667,None,No,Low,Low,Female,Yes,Medium,No,No,Yes,No,No
0.225,0.716667,High,No,High,High,Male,Yes,Medium,No,No,No,No,No
0.725,0.183333,None,Yes,Medium,High,Female,Yes,High,No,No,No,No,No
0.5125,0.083333,Low,Yes,Medium,High,Male,Yes,High,No,No,Yes,No,No
0.975,0.866667,None,Yes,High,Low,Female,Yes,Low,No,Yes,No,Yes,No
0.275,0.933333,High,Yes,Medium,High,Female,Yes,High,No,Yes,No,Yes,No
0.25,0.933333,None,No,High,Medium,Female,No,Medium,Yes,Yes,No,Yes,No
0.85,0.816667,Low,No,High,High,Female,Yes,High,No,No,No,Yes,No
0.2375,0.266667,Medium,Yes,Low,High,Female,No,Low,Yes,No,Yes,No,No
0.9,0.316667,Medium,Yes,Medium,Medium,Male,Yes,High,No,Yes,No,No,No
0.6125,0.466667,High,Yes,High,High,Male,Yes,Medium,No,Yes,Yes,Yes,No
0.05,0.816667,None,No,Low,High,Female,Yes,Low,No,No,Yes,Yes,No
0.1125,0.75,None,No,Low,Medium,Female,Yes,Low,Yes,No,No,No,No
0.0875,0.633333,Low,No,Low,Medium,Male,Yes,Medium,No,No,Yes,No,No
0.675,0.8,High,Yes,Medium,Medium,Male,Yes,Low,No,Yes,Yes,Yes,No
0.0125,0.566667,None,Yes,High,High,Male,Yes,Low,Yes,Yes,Yes,Yes,No
0.75,0.5,Low,Yes,High,Low,Female,No,High,Yes,No,No,Yes,No
0.5875,0.85,Low,Yes,Medium,Low,Female,Yes,Medium,No,No,Yes,Yes,No
0.2625,0.116667,None,Yes,Medium,Low,Female,No,Medium,No,No,No,No,No
0.8375,0.283333,None,Yes,Low,Low,Female,Yes,High,Yes,Yes,No,Yes,No
0.1125,0.75,None,No,Low,Medium,Female,Yes,Low,Yes,No,No,No,No
0.2625,0.8,Medium,Yes,Medium,Low,Male,Yes,Medium,No,Yes,Yes,Yes,No
0.925,0.483333,Medium,No,Medium,Low,Female,Yes,Medium,No,No,Yes,No,No
0.75,0.333333,Medium,Yes,Medium,High,Female,Yes,Medium,Yes,Yes,Yes,Yes,No
0.4875,0.916667,Medium,Yes,Medium,High,Female,Yes,Low,Yes,No,No,No,No
0.225,0.716667,High,No,High,High,Male,Yes,Medium,No,No,No,No,No
0.4125,0.383333,Low,Yes,High,High,Male,Yes,Medium,No,Yes,No,No,No
0.575,0.45,Low,No,Low,Medium,Male,No,Medium,No,No,No,Yes,No
0.975,0.816667,Medium,Yes,Medium,Low,Female,No,Medium,Yes,Yes,No,Yes,No
0.2625,0.566667,High,Yes,Medium,Low,Female,No,Medium,Yes,No,No,Yes,No
0.525,0.9,Low,No,Low,High,Female,No,Low,No,Yes,No,Yes,No
0.8375,0.916667,None,No,Low,Medium,Male,No,High,Yes,Yes,Yes,Yes,No
0.4625,0.966667,High,Yes,Medium,Medium,Female,No,Medium,No,Yes,No,No,No
0.125,0.716667,None,Yes,Medium,Low,Female,Yes,Low,Yes,No,Yes,Yes,No
0.0625,0.9,Medium,Yes,Low,Low,Male,Yes,High,No,No,Yes,Yes,No
0.025,0.733333,High,Yes,Low,High,Male,Yes,High,Yes,No,Yes,Yes,No
0.4625,0.083333,Medium,Yes,Low,Medium,Female,Yes,Medium,Yes,Yes,No,No,No
0.45,0.15,High,No,Medium,Low,Female,Yes,Medium,Yes,Yes,Yes,No,No
0.2,0.5,Low,No,High,Medium,Female,No,Low,No,No,Yes,Yes,No
0.9625,0.783333,Medium,Yes,Low,Medium,Male,Yes,Medium,No,No,Yes,Yes,No
0.175,0.666667,Low,No,Medium,Low,Male,Yes,High,Yes,Yes,No,No,No
0.325,0.9,Low,No,Low,Low,Female,No,Medium,No,Yes,No,No,No
0.1,0.783333,None,Yes,High,Medium,Female,No,Medium,No,No,No,Yes,No
0.8875,0.65,Low,Yes,High,High,Female,No,Low,No,No,Yes,Yes,No
1,0.15,None,Yes,Medium,Low,Male,Yes,High,Yes,Yes,Yes,No,No
0.4625,0.45,Medium,No,High,High,Female,Yes,Low,Yes,Yes,No,No,No
0.4375,0.466667,High,Yes,Medium,Low,Male,Yes,High,No,Yes,No,No,No
0.25,0.766667,Medium,Yes,High,Medium,Female,Yes,High,No,Yes,No,Yes,No
0.4875,0.7,High,Yes,Medium,Low,Female,Yes,High,No,No,No,Yes,No
0.0875,0.333333,Low,No,Medium,Medium,Male,Yes,Low,Yes,Yes,No,No,No
0.475,0.766667,Low,No,High,Medium,Male,Yes,Medium,No,Yes,No,No,No
0.3125,0.383333,None,Yes,High,Medium,Male,Yes,High,No,No,Yes,Yes,No
0.7625,0.6,Low,No,Low,Low,Male,Yes,High,Yes,Yes,No,Yes,No
0.05,0.15,Low,No,Medium,Low,Female,Yes,High,No,No,No,No,No
0.9625,0.066667,High,No,Medium,High,Female,Yes,High,Yes,No,Yes,No,No
0.45,0.116667,Medium,No,Medium,High,Male,No,Medium,Yes,Yes,Yes,No,No
0.9375,0.3,Medium,Yes,High,Low,Female,Yes,Medium,No,No,No,No,No
0.725,0.266667,Low,No,Low,Medium,Female,Yes,Low,Yes,No,No,Yes,No
0.4625,0.8,High,Yes,Low,Low,Male,Yes,High,Yes,No,No,No,No
0.85,0.3,None,No,Low,Low,Female,No,Medium,Yes,No,Yes,No,No
0.6,0.783333,None,Yes,High,Low,Female,Yes,High,Yes,No,Yes,Yes,No
0.0875,0.266667,Medium,No,Low,High,Male,Yes,High,Yes,No,No,Yes,No
0.2,0.966667,High,No,High,High,Female,Yes,High,No,No,Yes,No,No
0.95,0.733333,Low,No,High,Low,Female,Yes,Low,No,No,No,Yes,No
0.0625,0.5,High,No,Medium,High,Male,No,Medium,Yes,No,No,Yes,No
0.4125,0.1,Low,Yes,High,Low,Female,Yes,High,Yes,No,No,No,No
0.4875,0.05,Medium,No,Low,Medium,Female,Yes,Medium,No,Yes,Yes,No,No
0.2,0.383333,Low,No,High,Medium,Female,No,High,Yes,No,No,No,No
0.375,0.016667,Medium,No,Medium,Low,Male,Yes,High,No,Yes,No,Yes,No
0.8375,0.266667,None,No,High,Medium,Female,No,High,Yes,No,No,Yes,No
0.45,0.083333,None,No,High,Low,Male,No,High,Yes,Yes,Yes,No,No
0.8625,0.2,Medium,No,High,Low,Female,No,Medium,Yes,Yes,Yes,No,No
0.675,0.433333,Low,Yes,Low,Medium,Male,Yes,Low,Yes,Yes,Yes,No,No
0.4375,0.916667,Low,No,High,High,Female,No,High,No,No,No,No,No
0.1625,0.516667,Low,Yes,High,Medium,Male,No,High,No,No,Yes,Yes,No
0.9125,0.7,Medium,No,High,High,Female,No,High,Yes,Yes,No,Yes,No
0.9375,0.2,None,Yes,High,Low,Female,No,Medium,No,No,No,Yes,No
0.3375,0.333333,Low,Yes,Low,Low,Female,Yes,High,No,Yes,Yes,Yes,No
0.6875,0.433333,None,Yes,Low,Medium,Female,No,Medium,Yes,Yes,No,No,No
0.275,0.266667,Medium,No,Low,Medium,Male,No,High,Yes,No,Yes,No,No
0.625,0.716667,None,No,Low,Low,Female,No,Medium,Yes,No,No,Yes,No
0.1125,0.233333,Medium,Yes,Low,Low,Male,Yes,Medium,No,Yes,Yes,Yes,No
0.125,0.7,None,Yes,Low,Low,Female,No,High,Yes,No,No,No,No
0.0375,0.65,None,Yes,Low,Low,Male,No,High,Yes,No,Yes,No,No
0.5,0.466667,None,No,High,Medium,Female,Yes,High,Yes,No,No,No,No
0.3875,0,High,Yes,High,Medium,Male,No,High,No,No,Yes,No,No
0.9625,0.05,None,Yes,Low,High,Female,No,High,No,Yes,Yes,Yes,No
0.0375,0.65,Low,Yes,Low,High,Female,Yes,Medium,Yes,No,No,No,No
0.75,0.916667,None,No,Medium,Low,Female,Yes,High,No,Yes,Yes,No,No
0.475,0.783333,Low,No,Low,High,Female,Yes,Low,Yes,No,No,Yes,No
0.3625,0.05,High,No,Medium,Medium,Male,Yes,Low,Yes,No,No,Yes,No
0.2875,0.816667,Low,No,Low,Low,Male,No,High,No,Yes,Yes,Yes,No
0.975,0.366667,None,No,High,Medium,Female,No,Low,No,Yes,No,Yes,No
0.075,0.85,High,No,High,High,Male,Yes,Low,No,Yes,No,No,No
0.3,0.116667,None,Yes,High,High,Female,Yes,Low,No,Yes,Yes,Yes,No
0.9625,0.416667,Medium,Yes,Low,Low,Female,No,High,Yes,No,No,No,No
0.5625,0.166667,Low,No,High,Low,Male,Yes,Low,Yes,No,Yes,Yes,No
0.15,0.883333,None,Yes,Medium,High,Female,Yes,Medium,No,No,No,Yes,No
0.6375,0.983333,High,No,High,Low,Male,Yes,Low,No,Yes,No,No,No
0.1875,0.883333,Low,No,High,Medium,Female,No,Medium,Yes,No,No,No,No
0.8625,0.716667,Low,Yes,High,Medium,Male,Yes,Medium,No,No,No,No,No
0.1,0.75,Low,No,Low,Low,Female,Yes,Low,Yes,No,No,No,No
0.9625,0.966667,Medium,No,Medium,Low,Male,No,Low,Yes,No,Yes,Yes,No
0.875,0.8,Low,No,High,High,Female,No,High,No,Yes,Yes,No,No
0.7375,0.033333,Medium,No,High,Medium,Male,Yes,Medium,No,Yes,No,Yes,No
0.35,0.483333,None,No,Low,High,Female,No,Low,Yes,No,No,No,No
0.325,0.833333,Medium,No,Medium,Low,Male,No,Low,No,No,Yes,Yes,No
0.4625,0.283333,Medium,Yes,Low,High,Female,No,Low,No,Yes,No,No,No
1,0.333333,None,Yes,Medium,Medium,Female,Yes,Medium,No,Yes,Yes,Yes,No
0.675,0.583333,High,No,Medium,Medium,Male,No,Low,Yes,Yes,Yes,No,No
0.8625,0.9,None,Yes,Medium,Low,Female,Yes,Medium,No,Yes,No,No,No
0.875,0.05,High,No,Medium,High,Male,Yes,High,Yes,No,Yes,No,No
0.5,0.083333,High,Yes,Medium,High,Male,No,Medium,Yes,Yes,No,No,No
0.2,0.616667,High,Yes,Low,High,Male,Yes,High,Yes,Yes,Yes,Yes,No
0.9,0.516667,Medium,Yes,High,Medium,Male,No,High,No,No,No,No,No
0.1875,0.1,Medium,Yes,Low,Low,Female,Yes,Low,Yes,No,No,Yes,No
0.4875,0.283333,Low,No,Low,Medium,Male,No,Low,Yes,Yes,Yes,No,No
0.7625,0.416667,High,No,High,Low,Male,Yes,Low,No,No,Yes,Yes,No
0.975,0.85,High,Yes,High,Low,Female,No,Low,No,No,Yes,Yes,No
0.1,0.866667,High,No,Low,Low,Female,Yes,High,No,No,No,No,No
0.35,0.566667,None,No,High,High,Male,No,Low,No,Yes,No,No,No
0.2,0.15,None,No,Medium,High,Female,No,Low,Yes,Yes,Yes,No,No
0.6125,0.466667,Low,Yes,High,High,Male,Yes,High,No,Yes,No,Yes,No
0.5875,0.1,Medium,No,High,High,Male,No,High,No,Yes,No,No,No
0.1,0.816667,High,No,Low,High,Male,No,Low,No,No,No,No,No
0.175,0.033333,None,Yes,High,Medium,Female,Yes,Medium,Yes,Yes,No,Yes,No
0.525,0.116667,Medium,Yes,Low,Medium,Female,Yes,High,No,Yes,Yes,Yes,No
0.15,0.783333,None,Yes,High,High,Female,Yes,Medium,No,Yes,Yes,No,No
0.1375,0.433333,Medium,No,Low,Medium,Female,No,Medium,No,Yes,No,Yes,No
0.2,0.266667,Low,No,Low,High,Female,Yes,Medium,Yes,No,Yes,Yes,No
1,0.233333,None,No,High,High,Male,Yes,Medium,Yes,Yes,Yes,No,No
0.1125,0.316667,None,No,Low,Low,Female,No,High,No,No,No,No,No
0.0875,0.483333,Medium,Yes,Medium,Low,Male,No,High,No,Yes,No,No,No
0.4875,0.8,None,Yes,Low,Medium,Female,Yes,Low,No,No,Yes,No,No
0.5,0.383333,None,No,Medium,High,Male,No,High,No,Yes,Yes,No,No
0.4125,0.85,None,Yes,High,Low,Female,Yes,High,Yes,Yes,Yes,No,No
0.45,0.883333,Medium,No,High,High,Male,Yes,High,Yes,No,No,Yes,No
0.725,0.15,Medium,Yes,Medium,High,Female,No,Low,Yes,Yes,No,Yes,No
0.9125,0.433333,Low,Yes,High,Low,Male,Yes,Medium,No,No,No,No,No
0.8375,0.416667,High,No,Low,Low,Female,No,Low,Yes,No,No,No,No
0.925,0.966667,Low,Yes,Low,High,Female,Yes,Medium,Yes,Yes,No,No,No
0.05,0.666667,Medium,No,Medium,High,Male,No,High,No,No,No,No,No
0.9875,0.95,Medium,Yes,Medium,High,Male,Yes,Low,Yes,Yes,No,Yes,No
0.2625,0.366667,Low,Yes,High,Medium,Male,Yes,Low,Yes,Yes,Yes,Yes,No
0.575,0.066667,Low,Yes,Low,Low,Male,Yes,High,Yes,Yes,Yes,Yes,No
0.5125,0.2,Medium,No,Low,High,Female,Yes,High,No,No,No,No,No
0.0625,0.216667,High,Yes,Medium,Low,Male,No,High,Yes,Yes,Yes,No,No
0.5875,0.266667,Medium,No,Medium,High,Female,No,Medium,No,Yes,No,Yes,No
0.875,0.1,None,No,Low,Medium,Female,No,Low,Yes,Yes,Yes,Yes,No
0.8125,0.566667,High,Yes,High,Medium,Female,Yes,High,Yes,Yes,Yes,No,No
0.75,0.233333,None,Yes,Medium,High,Female,No,Low,No,No,Yes,No,No
0.0375,0.283333,None,No,High,High,Female,Yes,High,Yes,No,No,No,No
0.4,0.495962,None,Yes,Low,Low,Male,No,Medium,No,No,No,No,No
0.9875,0.983333,None,Yes,Low,High,Female,No,Medium,No,Yes,No,No,No
0.2,0.883333,Medium,Yes,Low,Low,Male,Yes,Medium,Yes,No,No,No,No
0.0375,0.883333,Medium,No,Medium,High,Female,Yes,Low,Yes,No,Yes,Yes,No
0.2875,0.133333,Medium,No,Medium,Low,Female,No,Low,Yes,No,Yes,Yes,No
0.6875,0.733333,None,Yes,Medium,Low,Female,No,Low,Yes,No,Yes,No,No
0.825,0.4,Medium,Yes,Medium,Medium,Male,Yes,Low,No,No,No,Yes,No
0.3875,0.4,None,Yes,High,Medium,Female,No,High,Yes,Yes,Yes,No,No
0.125,0.35,Low,Yes,High,Medium,Male,Yes,High,Yes,Yes,No,No,No
0.3125,0.333333,None,No,High,Medium,Male,No,Medium,No,Yes,No,No,No
0.7125,0.933333,Low,Yes,High,High,Female,No,Low,Yes,Yes,No,No,No
0.9625,0.083333,None,No,High,Medium,Female,No,High,Yes,No,No,Yes,No
0.5375,0.25,None,Yes,Medium,Medium,Female,No,Low,No,No,Yes,Yes,No
0.3,0.9,Medium,No,High,Low,Female,Yes,Low,No,No,Yes,No,No
0.7625,0.283333,High,Yes,High,Low,Male,No,High,Yes,Yes,Yes,Yes,No
0.8875,0.166667,None,No,High,Low,Female,No,High,No,No,Yes,No,No
0.4375,0.55,Low,No,Low,High,Male,No,Low,No,Yes,Yes,No,No
0.6875,0.2,Low,No,Low,Medium,Male,Yes,Medium,Yes,Yes,No,No,No
0.025,0.516667,Low,No,Medium,Low,Female,No,Low,No,Yes,No,Yes,No
0.0875,0.55,Medium,Yes,Medium,High,Female,No,Medium,Yes,No,No,No,No
0.3875,0.483333,Low,Yes,Low,High,Male,No,High,No,Yes,Yes,Yes,No
0.0875,0.883333,High,Yes,Medium,Medium,Male,No,Medium,No,No,No,No,No
0.45,0.666667,None,No,Low,High,Male,No,High,Yes,Yes,Yes,Yes,No
0.375,0.1,High,Yes,Low,Low,Female,Yes,Low,No,No,No,Yes,No
0.6875,0.416667,Medium,No,Medium,Low,Male,Yes,Medium,Yes,No,Yes,Yes,No
0.5875,0.2,Medium,No,Medium,Medium,Female,No,Medium,Yes,Yes,Yes,No,No
0.225,0.583333,Medium,Yes,Medium,Low,Male,Yes,High,Yes,No,No,No,No
0.625,0.966667,High,No,Medium,High,Male,No,Medium,No,Yes,Yes,No,No
0.8625,0.116667,Low,No,Medium,High,Female,Yes,Medium,No,Yes,No,No,No
0.15,0.15,Medium,No,Medium,Medium,Female,No,High,No,No,No,No,No
0.6,0.05,None,Yes,High,High,Male,Yes,Low,Yes,Yes,No,No,No
0.6875,0.266667,Medium,No,Medium,High,Female,Yes,High,No,Yes,No,No,No
0.3625,0.55,None,No,Low,Low,Female,Yes,High,No,No,Yes,Yes,No
0.1,0.033333,Medium,Yes,Medium,High,Female,Yes,High,No,Yes,No,No,No
0.3625,0.866667,High,Yes,Medium,Low,Male,No,Medium,Yes,Yes,No,No,No
0.55,0.35,High,No,High,Low,Male,No,Low,Yes,No,Yes,Yes,No
0.05,0.583333,None,Yes,High,Medium,Male,Yes,Medium,Yes,Yes,Yes,Yes,No
0.4125,0.983333,Medium,Yes,Medium,Low,Female,No,Medium,Yes,No,No,No,No
0.2375,0.683333,High,No,High,High,Male,No,Low,Yes,No,Yes,No,No
0.7125,0.833333,Low,No,Low,High,Female,Yes,Medium,Yes,Yes,Yes,Yes,No
0.0625,0.283333,Medium,Yes,High,Low,Male,Yes,High,No,Yes,Yes,Yes,No
0.0375,0.816667,Low,Yes,High,High,Male,Yes,High,No,No,Yes,Yes,No
0.1625,0.266667,Medium,Yes,High,Low,Female,No,Low,Yes,No,Yes,No,No
0.15,0.066667,None,Yes,Low,Low,Male,Yes,Medium,No,No,Yes,No,No
0.7875,0.15,None,No,Medium,Medium,Male,No,Low,No,No,Yes,No,No
0.45,1,Low,No,High,Medium,Female,No,Medium,No,Yes,No,No,No
0.525,0.6,Medium,No,High,Medium,Male,No,High,Yes,Yes,Yes,Yes,No
0.8125,0.716667,High,Yes,Medium,High,Female,Yes,Low,Yes,Yes,Yes,No,No
0.4,0.416667,None,No,Low,High,Female,Yes,High,No,Yes,Yes,Yes,No
0.2125,0.933333,Medium,Yes,Low,Low,Male,Yes,High,No,Yes,Yes,Yes,No
0.0125,0,Medium,Yes,High,High,Male,No,Medium,No,No,Yes,Yes,No
0.9625,0.733333,High,No,Low,High,Female,Yes,High,Yes,Yes,Yes,Yes,No
0.85,0.916667,Medium,No,High,Medium,Female,No,High,No,Yes,No,Yes,No
0.3375,0.716667,Low,Yes,Medium,Low,Female,Yes,High,No,No,No,Yes,No
0.125,0.85,Medium,Yes,High,Low,Female,Yes,Medium,No,Yes,No,Yes,No
0.2875,0.233333,Medium,No,Medium,High,Female,Yes,High,No,Yes,Yes,No,No
0.075,0.483333,High,Yes,High,High,Female,No,High,Yes,No,Yes,Yes,No
0.4875,0.05,Medium,No,Low,Medium,Female,Yes,Medium,No,Yes,Yes,No,No
0.6,0.7,High,No,High,Medium,Male,No,Medium,No,No,Yes,No,No
0.2875,0.383333,Medium,No,Medium,Medium,Male,No,High,No,Yes,Yes,No,No
0.35,0.516667,High,Yes,High,Low,Male,Yes,Medium,Yes,Yes,Yes,Yes,No
0.9375,0.633333,None,Yes,High,Low,Male,No,Low,Yes,Yes,No,Yes,No
0.7875,0.45,Medium,No,Medium,Medium,Female,No,Medium,No,Yes,Yes,Yes,No
0.725,0.783333,Medium,No,Medium,Low,Male,Yes,Low,No,No,Yes,Yes,No
0.1,0.016667,None,No,Medium,Low,Female,No,Medium,No,Yes,Yes,Yes,No
0.4125,0.416667,High,Yes,Medium,Medium,Female,No,High,Yes,No,Yes,No,No
0.675,0.95,Low,No,Medium,Medium,Male,No,Medium,No,No,No,No,No
0.2,0.75,Medium,No,High,Medium,Female,No,High,No,Yes,Yes,No,No
0.3625,0.083333,Medium,No,High,Medium,Female,No,Low,Yes,Yes,Yes,Yes,No
0.275,0.683333,Medium,No,High,High,Male,No,Medium,Yes,Yes,No,No,No
0.675,0.633333,Medium,No,Medium,Medium,Male,Yes,Medium,Yes,Yes,No,Yes,No
0.775,0.783333,High,No,Low,Medium,Male,No,Medium,Yes,No,No,Yes,No
0.3,0.85,None,Yes,Medium,Low,Male,No,High,No,No,Yes,Yes,No
0.5875,0.033333,None,No,Low,High,Female,No,High,No,Yes,No,Yes,No
0.575,0.4,High,No,Low,Medium,Male,No,Medium,No,Yes,Yes,No,No
0.925,0.483333,Medium,Yes,Low,Medium,Male,No,Medium,Yes,Yes,No,No,No
0.1625,0.683333,None,No,Low,Medium,Male,Yes,Low,No,Yes,No,Yes,No
0.95,0.866667,None,No,Low,High,Female,No,Low,No,Yes,Yes,Yes,No
0.7625,0.616667,Low,No,High,Low,Male,No,Medium,Yes,No,No,No,No
0.175,0.683333,Medium,No,Low,Low,Female,No,High,No,Yes,No,No,No
0.4375,0.483333,None,Yes,Medium,Low,Male,Yes,High,Yes,Yes,No,Yes,No
0.725,0.816667,Medium,No,Medium,High,Female,No,Medium,Yes,No,Yes,No,No
0.6125,0.466667,Low,Yes,High,High,Male,Yes,High,No,Yes,No,Yes,No
0,0.266667,Low,No,Medium,Medium,Female,No,Medium,No,No,Yes,No,No
0.3,0.7,High,Yes,Low,High,Female,Yes,High,Yes,No,No,Yes,No
0.3625,0.416667,None,No,Low,Medium,Male,Yes,High,No,Yes,Yes,No,No
0.9625,0.766667,High,No,Low,High,Male,Yes,Low,No,Yes,No,No,No
0.5375,0.216667,High,No,Medium,Low,Male,No,Low,Yes,Yes,Yes,Yes,No
0.5875,0.45,Medium,Yes,Medium,High,Female,No,High,No,No,Yes,Yes,No
0.0625,0.216667,Low,Yes,Low,High,Male,No,Medium,Yes,Yes,Yes,No,No
0.1,0.466667,Low,No,Medium,Medium,Female,Yes,High,Yes,No,No,No,No
0.35,1,Medium,Yes,Medium,Low,Female,Yes,Low,No,No,Yes,Yes,No
0.0375,0.45,None,No,High,Low,Female,Yes,Medium,Yes,Yes,No,No,No
0.45,0.65,High,Yes,High,Low,Male,Yes,High,No,Yes,Yes,Yes,No
0.55,0.65,High,Yes,Low,High,Female,No,Medium,Yes,Yes,Yes,Yes,No
0.9,0.633333,Medium,Yes,Medium,Low,Male,No,High,Yes,No,Yes,Yes,No
0.15,0.666667,Low,Yes,Low,Low,Male,No,Medium,No,Yes,No,Yes,No
0.125,0.85,Medium,Yes,High,Low,Female,Yes,Medium,No,Yes,No,Yes,No
0.775,0.316667,Medium,No,Medium,Low,Male,No,Medium,No,Yes,No,No,No
0.7125,0.316667,High,No,Medium,Medium,Female,Yes,High,Yes,No,No,No,No
0.175,0.016667,Medium,No,High,Low,Male,Yes,Low,Yes,Yes,Yes,No,No
0.1375,0.966667,Low,No,Low,Medium,Male,Yes,Low,Yes,No,No,No,No
0.1625,0.85,None,Yes,Medium,Low,Male,Yes,High,Yes,Yes,No,No,No
0.2375,0.666667,Low,Yes,Low,Medium,Male,Yes,Medium,No,Yes,Yes,Yes,No
0.825,0.15,None,No,Medium,Medium,Male,Yes,Low,Yes,Yes,Yes,No,No
0.3125,0.816667,Low,Yes,Low,Low,Male,No,High,No,No,Yes,No,No
0.4875,0.35,None,Yes,Medium,High,Male,Yes,High,No,Yes,Yes,No,No
0.55,0.7,High,Yes,Medium,Low,Female,Yes,Low,Yes,Yes,No,Yes,No
0.2,0.65,Medium,No,High,Medium,Female,No,High,Yes,No,Yes,Yes,No
0.825,0.133333,None,Yes,Low,Low,Male,Yes,High,Yes,No,Yes,Yes,No
0.475,0.6,Medium,Yes,Low,Low,Female,Yes,Low,Yes,No,No,Yes,No
0.6,0.516667,Medium,No,High,Medium,Male,No,Low,No,No,Yes,Yes,No
0.65,0.3,Low,Yes,Medium,Low,Male,No,Medium,No,No,No,No,No
0.55,1,None,Yes,Medium,Medium,Female,No,High,Yes,Yes,No,No,No
0.275,0.45,None,No,High,High,Female,No,High,No,Yes,Yes,Yes,No
0.6375,0.7,None,No,Low,High,Male,No,Low,No,Yes,No,Yes,No
0.6625,0.766667,None,Yes,Low,Medium,Female,Yes,High,No,Yes,No,Yes,No
0.875,0.1,None,No,Low,Medium,Female,No,Low,Yes,Yes,Yes,Yes,No
0.05,0.3,Low,No,High,High,Male,No,High,No,Yes,Yes,Yes,No
0.375,0.75,Medium,No,High,High,Female,Yes,Medium,Yes,No,No,Yes,No
0.925,0.35,Low,No,Medium,High,Female,No,Medium,No,Yes,Yes,No,No
0.1625,0.233333,None,Yes,Low,High,Male,No,Low,No,No,No,No,No
0.55,0.783333,None,Yes,Medium,Low,Female,Yes,High,Yes,No,No,Yes,No
0.1875,0.416667,Medium,No,Medium,Medium,Male,No,Medium,No,No,No,Yes,No
0.3375,0.85,None,No,High,Medium,Male,Yes,Medium,Yes,Yes,Yes,Yes,No
0.0625,0.666667,Low,Yes,Low,High,Female,No,High,Yes,No,No,Yes,No
0.2,1,Medium,Yes,Medium,Low,Female,Yes,High,Yes,Yes,No,Yes,No
0.5,0.416667,Low,No,High,Low,Female,Yes,High,No,Yes,Yes,Yes,No
0.275,0.683333,High,Yes,Low,High,Male,Yes,High,Yes,No,Yes,No,No
0.0125,0.566667,Medium,No,High,Medium,Male,No,High,No,No,No,Yes,No
0.2375,0.733333,Medium,No,High,Medium,Male,No,Medium,Yes,No,Yes,Yes,No
0.35,0,Medium,Yes,Medium,Low,Male,No,Medium,Yes,Yes,Yes,No,No
0.4125,0.866667,None,No,High,Low,Male,No,Low,Yes,Yes,Yes,No,No
0.1,0.133333,Low,No,Medium,Low,Female,Yes,High,Yes,No,Yes,No,No
0.6875,0.016667,Medium,Yes,Medium,Medium,Male,No,High,No,Yes,Yes,Yes,No
0.975,0.116667,High,No,Medium,Medium,Male,No,Low,Yes,Yes,No,Yes,No
0.2375,0.483333,Low,No,Medium,Low,Male,No,Low,Yes,No,No,No,No
0.075,0.683333,None,No,Medium,Low,Female,Yes,Medium,Yes,Yes,No,No,No
0.6,0.05,None,Yes,High,High,Male,Yes,Low,Yes,Yes,No,No,No
0.6625,0.533333,Low,No,High,Medium,Male,No,Low,Yes,No,Yes,No,No
0.9875,0.15,None,No,High,Medium,Male,No,Medium,No,No,Yes,No,No
0.9,0.983333,None,No,Medium,High,Female,No,High,Yes,No,Yes,No,No
0.2125,0.616667,Low,No,Medium,Low,Female,Yes,High,Yes,No,Yes,Yes,No
0.5875,0.516667,Low,No,High,Medium,Male,No,Low,No,No,No,No,No
0.2875,0.333333,None,No,Low,Low,Male,Yes,Medium,No,No,Yes,No,No
0.725,0.95,High,Yes,High,Medium,Female,No,High,Yes,Yes,No,Yes,No
0.4875,0.116667,High,No,High,Medium,Male,Yes,High,Yes,No,Yes,No,No
0.375,0.966667,Medium,Yes,High,High,Female,Yes,Medium,Yes,Yes,No,No,No
0.35,0.716667,Medium,Yes,Medium,High,Male,Yes,Low,No,No,No,Yes,No
0.325,0.383333,High,Yes,Low,High,Male,Yes,Medium,No,No,Yes,Yes,No
0.65,0.583333,Medium,Yes,High,Low,Male,No,Medium,No,Yes,Yes,No,No
0.0375,0.166667,High,No,Low,Medium,Male,Yes,Medium,Yes,Yes,Yes,Yes,No
0.1,0.616667,None,No,Low,Medium,Female,No,Medium,Yes,Yes,No,No,No
0.5875,0.983333,None,Yes,Medium,Low,Female,Yes,Medium,Yes,Yes,Yes,No,No
1,0.966667,None,No,Low,High,Female,Yes,Low,No,Yes,No,Yes,No
0.95,0.383333,High,Yes,Low,High,Female,Yes,Medium,Yes,Yes,Yes,No,No
0.85,0.533333,None,No,High,Low,Male,Yes,High,No,Yes,Yes,No,No
0,0.8,Low,Yes,Low,Low,Female,No,Low,Yes,No,Yes,No,No
0.7,0.9,Low,Yes,Low,Low,Female,Yes,Medium,No,No,Yes,Yes,No
0.4875,0.116667,High,No,High,Medium,Male,Yes,High,Yes,No,Yes,No,No
0.8625,0.666667,High,No,High,Medium,Male,No,High,Yes,No,Yes,No,No
0.1125,0.683333,Medium,No,Low,Medium,Male,Yes,Low,Yes,Yes,Yes,No,No
0.1625,0.766667,Low,No,Medium,Low,Female,No,Medium,No,Yes,Yes,Yes,No
0.6875,0.516667,Low,Yes,High,Medium,Male,Yes,Medium,Yes,Yes,No,Yes,No
0.0375,0.283333,None,No,High,High,Female,Yes,High,Yes,No,No,No,No
0.45,0.4,High,Yes,High,Low,Male,Yes,Low,Yes,Yes,No,Yes,No
0.6875,0.816667,Medium,Yes,Low,Low,Female,No,Medium,Yes,Yes,No,No,No
0.675,0.15,High,Yes,High,High,Female,No,Medium,No,No,No,No,No
0.575,0.85,Low,Yes,Low,Medium,Female,No,High,No,Yes,No,No,No
0.8125,0.716667,High,Yes,Medium,High,Female,Yes,Low,Yes,Yes,Yes,No,No
0.4,0.783333,Low,No,High,High,Male,No,High,Yes,No,No,Yes,No
0.95,0.8,Medium,No,Low,Medium,Male,No,High,Yes,Yes,Yes,Yes,No
0.325,0.1,Low,Yes,High,Low,Male,Yes,Low,No,No,Yes,No,No
0.5375,0.983333,None,No,Low,High,Male,Yes,Low,Yes,Yes,No,Yes,No
0.55,0.833333,Medium,No,High,Low,Female,Yes,Medium,Yes,No,No,No,No
0.4625,0.566667,None,No,High,High,Female,Yes,High,Yes,Yes,No,Yes,No
0.5375,0.383333,Low,No,High,Medium,Male,Yes,High,No,Yes,Yes,Yes,No
0.5375,0.333333,None,No,High,Low,Male,Yes,Low,Yes,No,Yes,No,No
0.9,0.65,High,Yes,Low,Low,Female,Yes,Medium,No,No,No,No,No
0.6125,0.2,High,No,Low,High,Male,Yes,Medium,Yes,No,Yes,Yes,No
0.55,0.133333,Medium,No,Low,Low,Female,Yes,High,No,No,No,No,No
0.1875,0.516667,None,Yes,High,Low,Male,Yes,Low,No,Yes,Yes,No,No
0.9875,0.3,High,No,Medium,Medium,Male,Yes,Low,No,Yes,No,Yes,No
0.65,0.433333,High,Yes,High,High,Male,No,Low,No,No,No,Yes,No
0.3,0.633333,Medium,Yes,High,Low,Female,No,Medium,Yes,Yes,Yes,Yes,No
0.25,0.766667,Medium,Yes,High,Medium,Female,Yes,High,No,Yes,No,Yes,No
0.125,0.45,Medium,No,Medium,Medium,Male,No,High,Yes,Yes,No,Yes,No
0.35,0,Medium,Yes,Medium,Low,Male,No,Medium,Yes,Yes,Yes,No,No
0.5375,0.966667,Low,Yes,Low,High,Female,Yes,Low,Yes,No,No,No,No
0.6125,0.883333,High,No,Low,High,Male,No,Medium,No,Yes,Yes,Yes,No
0.475,0.366667,None,No,Medium,Low,Female,No,High,No,No,No,Yes,No
0.25,0.116667,High,No,High,Medium,Male,No,Low,Yes,No,Yes,No,No
0.1375,0.566667,Low,Yes,Medium,High,Male,No,High,Yes,No,Yes,No,No
0.425,0.35,Medium,Yes,Low,High,Female,Yes,Low,No,No,No,Yes,No
0.325,0.266667,Medium,Yes,Medium,High,Female,Yes,Low,No,No,No,No,No
0.0625,0.116667,Medium,Yes,Medium,Low,Male,No,Low,Yes,Yes,Yes,Yes,No
0.925,0.75,Low,No,Low,Low,Male,Yes,Medium,No,No,Yes,No,No
0.0625,0.366667,Low,Yes,Medium,Low,Male,No,High,Yes,Yes,Yes,Yes,No
0.775,0.866667,High,No,Medium,Low,Male,No,High,No,No,Yes,No,No
0.0375,0.566667,High,Yes,Low,High,Female,Yes,High,No,Yes,No,Yes,No
0.7125,0.433333,Medium,No,High,High,Male,Yes,High,Yes,Yes,No,Yes,No
0.525,0.633333,Low,Yes,Medium,High,Male,No,Medium,Yes,No,No,Yes,No
0.9375,0.866667,None,No,Medium,Medium,Female,Yes,Medium,Yes,Yes,Yes,Yes,No
0.6625,0.35,None,No,High,High,Male,Yes,Low,No,Yes,Yes,No,No
0.525,0.683333,Medium,Yes,Low,Medium,Male,Yes,Low,Yes,No,No,Yes,No
0.2,0.366667,Medium,No,Low,High,Male,Yes,Medium,Yes,Yes,No,Yes,No
0.9,0.833333,Medium,Yes,Medium,High,Male,Yes,High,Yes,No,No,Yes,No
0.2,0.233333,Low,Yes,High,Low,Female,Yes,Medium,Yes,No,No,Yes,No
0.5875,0.783333,Low,No,High,Low,Male,Yes,Low,No,No,Yes,Yes,No
0.1,0.3,None,No,High,Medium,Female,Yes,Low,No,Yes,Yes,Yes,No
0.3,0.983333,Medium,No,Medium,Low,Male,No,Low,Yes,Yes,No,No,No
0.75,0.816667,None,No,Low,High,Male,Yes,Low,Yes,No,No,Yes,No
0.975,0.133333,Low,No,Medium,High,Male,Yes,Medium,Yes,No,Yes,No,No
0.4,0.1,Medium,No,Medium,High,Male,No,High,Yes,Yes,No,Yes,No
0.0875,0.1,Medium,No,High,Medium,Male,No,Low,Yes,No,No,Yes,No
0.3875,0.65,Low,Yes,Low,Low,Female,Yes,Low,No,Yes,Yes,No,No
0.25,0.166667,Medium,Yes,High,Low,Female,Yes,Medium,No,Yes,Yes,Yes,No
0.9375,0.35,High,Yes,Medium,High,Female,Yes,Medium,No,No,No,Yes,No
0.7125,0.116667,High,No,Low,Low,Female,Yes,High,No,Yes,No,Yes,No
0.325,0,Low,Yes,Low,Low,Male,No,Low,No,Yes,No,Yes,No
0.9875,0.366667,High,Yes,Medium,Low,Male,Yes,Low,No,Yes,Yes,Yes,No
0.775,0.233333,None,Yes,Medium,Low,Male,No,Medium,Yes,Yes,Yes,Yes,No
0.725,0.616667,Low,No,Low,Low,Female,No,Low,No,No,Yes,Yes,No
0.8375,0.633333,None,Yes,Low,Medium,Male,No,Medium,No,Yes,No,Yes,No
0.0875,0.916667,Low,No,High,High,Male,No,High,Yes,Yes,No,No,No
0.725,0.966667,Low,No,High,Low,Male,No,Low,No,No,Yes,No,No
0.475,0.3,High,No,High,Medium,Female,Yes,High,No,No,No,No,No
0.6375,0.066667,None,Yes,High,High,Male,Yes,Low,Yes,Yes,No,No,No
0.1,0.1,None,Yes,Low,Medium,Female,Yes,High,No,Yes,No,No,No
0.6375,0.516667,Low,No,Low,Medium,Female,Yes,Medium,Yes,No,No,No,No
0.625,0.783333,High,No,Medium,Medium,Female,Yes,High,Yes,No,No,Yes,No
0.1625,0.733333,High,Yes,Low,Low,Female,No,Low,No,No,No,Yes,No
0.275,0,Low,No,Medium,Low,Male,Yes,Medium,No,No,No,Yes,No
0.875,0.45,Low,Yes,Medium,High,Female,Yes,Low,No,Yes,No,No,No
0.5625,0.05,None,Yes,Medium,High,Female,Yes,Low,Yes,Yes,No,Yes,No
0.0125,0,Medium,Yes,Medium,Medium,Female,No,High,Yes,No,Yes,No,No
0.975,0.233333,None,Yes,High,High,Male,Yes,Medium,Yes,No,Yes,Yes,No
0.2125,0.55,None,Yes,Medium,High,Male,No,High,Yes,Yes,No,Yes,No
0.4,0.283333,Medium,No,Medium,Medium,Male,No,High,No,Yes,No,Yes,No
0.15,0.966667,Medium,No,High,Medium,Female,Yes,Medium,Yes,No,Yes,Yes,No
0.225,0,None,Yes,Low,Medium,Male,Yes,Low,Yes,Yes,No,Yes,No
0.85,0.15,None,Yes,Low,High,Male,Yes,High,No,Yes,No,Yes,No
0.4375,0.766667,High,Yes,Medium,High,Male,Yes,Medium,No,Yes,Yes,Yes,No
0.2,0.566667,Medium,No,High,Medium,Male,No,High,Yes,Yes,Yes,No,No
0.8125,0.316667,None,Yes,High,High,Female,Yes,High,No,Yes,No,Yes,No
0.6125,0.783333,High,Yes,High,Low,Male,Yes,Low,Yes,Yes,No,No,No
0.6875,0.45,None,No,Low,High,Female,Yes,Medium,No,No,No,Yes,No
0.675,0.966667,None,Yes,Low,Low,Male,No,Medium,Yes,No,Yes,Yes,No
0.8625,0.566667,None,Yes,Low,High,Female,No,Medium,Yes,No,No,Yes,No
0.7625,0.833333,Medium,No,Medium,Low,Female,Yes,High,Yes,No,Yes,No,No
0.825,0.066667,High,No,Medium,Low,Male,No,Low,No,No,No,No,No
0.2875,0.033333,None,Yes,Low,Low,Male,No,High,No,Yes,No,No,No
0.6125,0.283333,None,Yes,Medium,Low,Male,Yes,High,Yes,Yes,Yes,Yes,No
0.3125,0.033333,None,Yes,High,Medium,Female,No,High,Yes,Yes,Yes,Yes,No
0.6875,0.533333,None,Yes,High,Low,Male,Yes,Medium,Yes,No,Yes,No,No
0.1375,0.416667,High,No,Medium,Medium,Male,Yes,Low,Yes,No,No,Yes,No
0,0.333333,Low,Yes,Low,Medium,Male,No,Low,Yes,No,No,Yes,No
0.5875,0.133333,Low,No,Low,High,Female,Yes,High,Yes,No,No,No,No
0.0375,0.333333,None,Yes,Medium,High,Male,No,Low,Yes,Yes,Yes,No,No
0.4,0.3,High,No,High,High,Male,Yes,Low,No,No,Yes,Yes,No
0.5,0.8,Low,No,High,Medium,Female,Yes,High,No,No,No,Yes,No
0.175,0.316667,Low,Yes,Low,Medium,Female,Yes,Medium,Yes,No,Yes,No,No
0.475,0.316667,None,No,Medium,High,Female,No,Medium,Yes,No,No,Yes,No
0.925,0.366667,Low,No,Medium,Low,Female,No,Medium,No,Yes,No,Yes,No
0.6125,0.3,None,Yes,High,Medium,Female,Yes,High,Yes,Yes,No,Yes,No
0.975,0.083333,Low,Yes,Medium,Medium,Female,No,Medium,No,No,No,No,No
0.7,0.1,None,Yes,High,Medium,Male,Yes,Low,Yes,Yes,Yes,No,No
0.55,0.65,High,Yes,Low,High,Female,No,Medium,Yes,Yes,Yes,Yes,No
0.7125,0.933333,Low,Yes,Medium,High,Female,No,Medium,No,Yes,Yes,Yes,No
0.2125,0.283333,High,No,High,Low,Male,Yes,Medium,No,No,Yes,No,No
0.8875,0.166667,None,No,High,Low,Female,No,High,No,No,Yes,No,No
0.3375,0.55,High,No,High,Low,Female,Yes,High,Yes,Yes,No,No,No
0.925,0.683333,None,Yes,Low,Medium,Male,No,Medium,Yes,Yes,Yes,No,No
0.9625,0.833333,None,Yes,High,Medium,Male,Yes,Low,No,No,No,Yes,No
0.925,0.8,Medium,No,Low,Medium,Female,Yes,High,No,Yes,Yes,Yes,No
0.825,0.766667,High,No,Low,High,Male,Yes,Medium,Yes,No,Yes,No,No
0.5625,0.533333,Low,No,Low,Low,Male,No,Low,No,No,No,Yes,No
0.0625,0.25,Medium,No,Medium,Medium,Female,No,Medium,No,Yes,No,Yes,No
0.4375,0.8,Medium,Yes,High,Medium,Female,No,Medium,Yes,Yes,No,Yes,No
0.575,0.4,Low,No,High,High,Male,Yes,Medium,Yes,No,No,No,No
0.1375,0.55,Medium,Yes,High,Medium,Female,No,Medium,No,Yes,No,Yes,No
0.0375,0,High,Yes,Low,High,Male,No,Medium,Yes,No,No,No,No
0.075,0.15,Medium,No,Low,Low,Female,No,Medium,No,Yes,Yes,Yes,No
0.725,0.35,None,No,Low,Low,Female,Yes,Medium,Yes,No,Yes,Yes,No
0.4375,0.916667,None,No,High,Medium,Male,Yes,Low,No,No,No,No,No
0.5375,0.383333,Medium,No,Low,High,Female,Yes,Medium,No,Yes,No,No,No
0.9875,0.733333,High,No,Medium,Medium,Female,No,High,No,No,Yes,Yes,No
0.3125,0.233333,High,Yes,Medium,Medium,Male,Yes,High,Yes,Yes,Yes,Yes,No
0.2625,0.733333,Medium,No,High,Low,Male,Yes,Low,No,Yes,No,No,No
0.05,0.583333,Medium,Yes,Low,High,Female,Yes,Medium,Yes,Yes,No,Yes,No
0.1625,0.866667,High,No,Medium,Medium,Female,No,Medium,No,No,Yes,No,No
0.8,0.85,Medium,Yes,Low,Medium,Female,No,High,No,No,Yes,Yes,No
0.0125,0.15,High,No,Low,High,Female,No,High,Yes,Yes,No,No,No
0.65,0.666667,Medium,Yes,Low,High,Male,No,Low,Yes,Yes,No,Yes,No
0.275,0.5,Medium,Yes,Low,Low,Female,No,High,No,No,Yes,No,No
0.4625,0.283333,Medium,Yes,Medium,Low,Female,Yes,Low,Yes,Yes,No,Yes,No
0.2375,0.5,None,Yes,Medium,Low,Female,Yes,High,No,No,No,Yes,No
0.6625,0.166667,None,No,High,High,Female,No,Low,Yes,No,Yes,No,No
0.475,0.133333,High,Yes,Low,Medium,Female,No,High,No,Yes,No,No,No
0.6625,0.9,High,No,Medium,High,Male,Yes,Low,No,Yes,Yes,Yes,No
0.425,0.316667,Medium,Yes,Low,High,Male,Yes,High,Yes,Yes,Yes,No,No
0.1125,0.75,Medium,Yes,Low,Low,Female,Yes,High,No,Yes,Yes,No,No
0.8875,0.016667,Low,No,Low,Low,Male,No,Medium,No,Yes,Yes,No,No
0.925,0.683333,None,Yes,High,Medium,Male,Yes,Low,Yes,Yes,No,Yes,No
0.075,0.766667,Medium,No,Low,Medium,Female,Yes,Medium,Yes,Yes,No,Yes,No
0.6625,0.883333,High,No,High,Medium,Female,Yes,Low,No,No,Yes,No,No
0.225,0.1,High,Yes,Low,Low,Female,Yes,Medium,No,Yes,Yes,Yes,No
0.6125,0.466667,Low,Yes,High,High,Male,Yes,High,No,Yes,No,Yes,No
0.0625,0.716667,High,Yes,Medium,Medium,Male,Yes,High,No,No,Yes,Yes,No
0.45,0.116667,Medium,No,Medium,High,Male,No,Medium,Yes,No,No,No,No
0.975,0.5,Low,Yes,Medium,Low,Female,No,Low,Yes,Yes,Yes,Yes,No
0.4875,0.05,Medium,No,Low,Medium,Female,Yes,Medium,No,Yes,Yes,No,No
0.05,0.333333,Low,Yes,Medium,Low,Female,Yes,High,No,Yes,No,No,No
0.5875,0.216667,Medium,No,Medium,Medium,Female,No,High,Yes,Yes,No,No,No
0.5625,0.466667,Low,Yes,High,High,Male,Yes,Medium,Yes,No,Yes,Yes,No
0.275,0.1,High,No,High,Low,Male,No,Low,Yes,No,No,No,No
0.0125,0.266667,Medium,No,Low,High,Male,Yes,Medium,Yes,No,No,No,No
0.6875,0.2,Low,No,Low,Medium,Male,Yes,Medium,Yes,Yes,No,No,No
0.6125,0.8,Low,No,High,Medium,Female,No,Medium,Yes,Yes,Yes,No,No
0.2625,0.083333,High,No,High,Medium,Male,No,High,No,Yes,Yes,Yes,No
0.275,0.433333,High,No,Medium,High,Male,No,Medium,Yes,Yes,No,Yes,No
0.725,0.783333,Medium,No,Medium,Low,Male,Yes,Low,No,No,Yes,Yes,No
0,0.983333,High,No,High,Medium,Male,Yes,Low,No,No,Yes,Yes,No
0.55,0.116667,Medium,Yes,High,Medium,Female,No,Low,No,Yes,Yes,No,No
0.6875,0.216667,Medium,Yes,High,Medium,Female,No,Low,No,No,Yes,No,No
0.15,0.883333,Medium,Yes,Medium,Medium,Male,No,High,Yes,Yes,No,No,No
0.7125,0,High,No,Medium,High,Female,No,Medium,No,Yes,No,No,No
0.325,0.966667,High,No,High,Low,Female,Yes,High,Yes,Yes,Yes,Yes,No
0.1625,0.483333,Medium,No,Low,Medium,Male,No,Low,Yes,No,Yes,No,No
0.2375,0.366667,Low,No,High,High,Female,No,Low,Yes,Yes,Yes,Yes,No
0.7375,0.233333,Medium,Yes,High,Medium,Male,No,Low,No,No,No,No,No
0.6875,0.533333,None,Yes,High,Medium,Male,No,Medium,No,Yes,Yes,No,No
0.1625,0.416667,None,No,Medium,High,Female,Yes,High,No,Yes,No,Yes,No
0.95,0.866667,None,No,Low,High,Female,No,Low,No,Yes,Yes,Yes,No
0.8625,0.616667,Low,No,Low,High,Female,No,Low,No,Yes,No,Yes,No
0.2125,0.533333,High,No,Medium,Low,Female,Yes,High,No,Yes,Yes,Yes,No
0.95,0.516667,None,Yes,Medium,High,Male,Yes,High,No,No,Yes,Yes,No
0.4,0.483333,Low,No,Medium,Low,Female,No,Low,No,No,No,No,No
0.7,0.85,Medium,Yes,Medium,Medium,Male,No,Low,Yes,No,Yes,No,No
0.8125,0.983333,Low,Yes,High,Low,Male,Yes,Low,Yes,Yes,No,No,No
0.8,0.383333,Low,Yes,High,High,Male,Yes,High,Yes,No,Yes,No,No
0.6,0.316667,High,Yes,Medium,Medium,Female,Yes,High,No,Yes,No,No,No
0.65,0.766667,Low,Yes,High,High,Female,Yes,High,Yes,No,No,Yes,No
0.0375,0.55,None,Yes,High,Low,Male,Yes,Low,No,Yes,No,No,No
0.725,0.183333,None,No,Medium,Medium,Female,Yes,Medium,Yes,Yes,No,Yes,No
0.9875,0.75,High,Yes,Medium,Medium,Male,No,High,Yes,No,No,No,No
0.675,0.383333,Low,Yes,Low,Medium,Female,No,High,No,No,No,Yes,No
0.975,0.433333,Low,No,Low,Medium,Female,No,Low,Yes,No,No,Yes,No
0.625,0.8,Low,No,Low,Low,Male,No,Low,Yes,No,No,No,No
0.375,0.583333,Medium,No,Medium,Low,Male,No,Low,No,No,Yes,No,No
0.325,0.283333,Medium,No,Medium,Low,Female,No,Medium,No,No,No,Yes,No
0.8375,0.35,None,No,Medium,Low,Male,No,Low,No,Yes,No,Yes,No
0.5875,0.2,Medium,No,Medium,Medium,Female,No,Medium,Yes,Yes,Yes,No,No
0.225,0.266667,Medium,Yes,High,Medium,Male,No,Low,Yes,No,Yes,Yes,No
0.3375,0.35,None,Yes,Low,Low,Female,Yes,High,Yes,Yes,No,No,No
0.45,0.183333,High,Yes,Low,Medium,Male,Yes,Medium,No,Yes,No,Yes,No
0.6,0.016667,High,No,Low,High,Female,No,Medium,No,No,No,Yes,No
0.95,0.783333,Medium,No,Low,Low,Female,Yes,Low,Yes,Yes,No,Yes,No
0.425,0.583333,Low,Yes,Medium,High,Female,No,Medium,No,Yes,Yes,No,No
0.9375,0.466667,Medium,Yes,High,Medium,Male,No,High,Yes,Yes,No,Yes,No
0.65,0.966667,High,No,Medium,Low,Male,Yes,Low,No,No,No,Yes,No
0.1,0.7,None,No,Medium,High,Female,Yes,Medium,No,Yes,No,No,No
0.2875,0.95,None,No,Low,High,Female,Yes,High,Yes,No,Yes,No,No
0.3,0.016667,None,No,High,High,Male,No,High,No,Yes,No,Yes,No
0.8875,0.083333,Low,No,Low,Medium,Female,No,Low,Yes,Yes,Yes,Yes,No
0.9125,0.133333,Low,Yes,Low,Medium,Male,No,High,No,No,No,Yes,No
0.2375,1,Low,Yes,Medium,Medium,Male,No,Low,Yes,Yes,No,No,No
0.25,0.116667,High,No,High,Medium,Male,No,Low,Yes,No,Yes,No,No
0.0375,0.033333,Low,No,High,Medium,Male,Yes,High,No,Yes,No,No,No
0.6,0.266667,High,No,Low,Medium,Male,Yes,High,Yes,Yes,No,Yes,No
0.575,0.866667,Low,No,Medium,Medium,Male,Yes,Low,Yes,Yes,Yes,No,No
0.1125,0.283333,High,Yes,High,High,Female,Yes,Medium,No,Yes,Yes,No,No
0.9,0.716667,High,No,Low,High,Female,Yes,Low,No,Yes,Yes,Yes,No
0.3875,0.366667,None,No,High,Medium,Female,Yes,Medium,Yes,No,Yes,Yes,No
0.825,0.016667,None,No,High,Low,Female,No,High,Yes,Yes,Yes,No,No
0.825,0.366667,None,Yes,Low,High,Male,No,Low,No,No,Yes,No,No
0.975,0.316667,Low,No,Medium,High,Female,Yes,Low,Yes,No,Yes,No,No
0.7625,0.783333,High,No,Low,High,Male,Yes,Medium,No,No,Yes,Yes,No
0.375,0.116667,None,No,High,Low,Male,No,High,No,No,No,Yes,No
0.025,0.283333,Medium,No,Medium,Low,Male,Yes,Medium,No,No,Yes,No,No
0.0875,0.8,None,Yes,Low,Medium,Male,No,High,No,Yes,No,No,No
0.275,0.533333,Low,Yes,Medium,Low,Female,Yes,Low,Yes,No,No,Yes,No
0.775,0.033333,Medium,No,High,High,Female,No,Medium,Yes,No,Yes,Yes,No
0.9375,0.966667,High,No,Low,High,Male,Yes,Low,No,No,No,Yes,No
0.25,0.116667,High,No,Medium,Low,Female,No,Low,Yes,No,No,No,No
0.85,0.866667,None,No,Low,High,Male,Yes,Low,No,Yes,Yes,No,No
0.175,0.533333,None,Yes,Low,Low,Female,No,Low,No,No,No,Yes,No
0,0.766667,None,No,High,Low,Female,No,High,Yes,No,No,Yes,No
0.775,0.016667,Medium,No,Low,Medium,Male,Yes,Low,No,No,Yes,No,No
0.8875,0.483333,High,Yes,Low,Medium,Male,No,Medium,Yes,No,No,No,No
0.225,0,High,Yes,Low,High,Female,No,Medium,Yes,No,No,No,No
0.4875,0.6,Medium,No,High,High,Male,No,High,No,Yes,Yes,Yes,No
0.95,0.25,Low,Yes,Medium,Low,Female,Yes,Medium,No,No,Yes,Yes,No
0.9,0.983333,None,No,Medium,High,Female,No,High,Yes,No,Yes,No,No
0.3375,0.716667,High,No,High,Low,Male,Yes,High,Yes,No,No,No,No
1,0.55,High,No,Medium,Medium,Female,Yes,Low,Yes,Yes,No,No,No
0.45,0.983333,Low,Yes,Medium,Low,Female,No,High,No,Yes,No,No,No
0.4375,0.05,High,Yes,Medium,Low,Female,No,Medium,Yes,No,Yes,Yes,No
0.825,0.6,None,Yes,Medium,Low,Female,Yes,Medium,No,Yes,No,Yes,No
0.025,0.916667,Medium,No,Medium,Low,Female,Yes,High,No,Yes,Yes,No,No
0.6875,0.066667,None,No,Low,High,Female,No,Medium,No,No,No,Yes,No
0.5375,0.866667,High,Yes,Low,Medium,Male,Yes,High,No,No,No,Yes,No
0.475,0.166667,Medium,Yes,High,Medium,Female,Yes,High,Yes,No,Yes,Yes,No
1,0.983333,None,No,High,High,Female,Yes,High,Yes,No,No,Yes,No
0.5875,0.716667,Medium,No,High,High,Male,Yes,High,Yes,Yes,No,No,No
0.725,0.183333,None,Yes,Medium,High,Female,Yes,High,No,No,No,No,No
0.1125,0.333333,None,Yes,Medium,Medium,Male,No,Medium,Yes,Yes,No,Yes,No
0.825,0.633333,Low,Yes,Low,High,Male,No,High,Yes,No,No,Yes,No
0.1875,0.233333,Low,No,High,Medium,Female,Yes,High,No,Yes,Yes,Yes,No
0.15,0.116667,High,Yes,Medium,Low,Male,Yes,High,Yes,Yes,No,No,No
0.6625,0.4,Low,Yes,High,Low,Male,No,Medium,No,No,No,No,No
0.325,0.983333,Low,No,Low,Medium,Female,Yes,High,No,No,No,No,No
0.3375,0.466667,None,Yes,Low,Medium,Female,Yes,Low,No,Yes,No,No,No
0.4875,0.15,Medium,Yes,Medium,High,Female,No,Medium,No,Yes,Yes,Yes,No
0.2625,0.966667,High,No,Low,Low,Male,No,High,Yes,Yes,Yes,No,No
0.4875,0.166667,Low,No,High,Low,Female,Yes,Low,No,Yes,No,No,No
0.15,0.833333,None,Yes,High,High,Male,Yes,Low,Yes,No,Yes,No,No
0.275,0.483333,None,No,High,Medium,Male,Yes,High,No,Yes,Yes,Yes,No
0.3625,0.266667,None,Yes,High,Medium,Male,No,Low,Yes,No,No,Yes,No
0.8875,0.633333,Low,Yes,High,Low,Female,Yes,Medium,Yes,Yes,Yes,Yes,No
0.6875,0.766667,Medium,No,Low,Medium,Female,Yes,Low,Yes,No,No,No,No
0.125,0.6,Medium,Yes,Medium,High,Male,No,High,Yes,No,No,No,No
0.6875,0.45,None,No,Low,High,Female,Yes,Medium,No,No,No,Yes,No
0.3125,0.333333,None,No,High,Medium,Male,No,Medium,No,Yes,No,No,No
0.3625,0.583333,None,Yes,High,Low,Female,No,Medium,Yes,No,No,Yes,No
0.725,0.1,High,No,High,High,Male,No,High,Yes,Yes,Yes,No,No
1,0.8,Low,No,High,High,Female,Yes,High,Yes,Yes,No,No,No
0.55,0.916667,Low,Yes,Low,High,Male,No,Medium,Yes,Yes,Yes,No,No
1,0.266667,High,No,Medium,Medium,Female,Yes,High,No,Yes,Yes,No,No
0.3625,0.133333,Medium,Yes,Medium,High,Male,Yes,Medium,No,Yes,No,Yes,No
0.9875,0.6,None,No,Medium,Low,Female,No,Medium,No,No,Yes,No,No
0.1,0.016667,High,Yes,Low,Medium,Male,Yes,Low,No,Yes,Yes,No,No
0.475,0.233333,Medium,No,Medium,Low,Female,Yes,Low,No,No,No,Yes,No
0.3375,0.716667,Low,Yes,Low,High,Male,No,High,Yes,Yes,No,Yes,No
0.25,0.916667,Low,No,Low,Medium,Male,No,Low,Yes,No,No,No,No
0.8375,0.883333,None,No,Medium,High,Female,Yes,Medium,No,Yes,Yes,No,No
0.1875,0.033333,High,Yes,Low,Medium,Male,Yes,High,Yes,No,No,Yes,No
0.525,0.616667,High,Yes,Medium,Low,Female,No,High,No,No,No,Yes,No
0.4625,0.35,High,No,Low,Low,Male,Yes,Medium,Yes,Yes,Yes,Yes,No
0.225,0.933333,None,Yes,High,High,Male,No,High,No,Yes,No,No,No
0.9125,0.25,Medium,No,High,Low,Female,No,Low,Yes,Yes,Yes,No,No
0.0875,0.05,None,No,High,Medium,Male,No,Medium,No,No,No,Yes,No
0.9,0.95,Low,Yes,High,High,Male,No,Medium,No,Yes,No,No,No
0.7,0.083333,Medium,No,Low,High,Male,No,Medium,No,Yes,Yes,No,No
0.6,0.95,High,No,High,High,Male,No,Medium,No,No,No,No,No
0.725,0.283333,High,Yes,High,High,Male,No,High,Yes,No,No,Yes,No
0.9125,0.3,Low,No,High,Low,Male,No,Medium,Yes,No,No,No,No
0.5375,0.266667,Low,Yes,Low,High,Male,No,Medium,No,Yes,Yes,Yes,No
0.5375,0.416667,Low,Yes,Low,Low,Female,Yes,Medium,No,No,Yes,Yes,No
0.3375,0.4,Medium,No,Medium,High,Female,No,High,Yes,Yes,Yes,No,No
0.375,0.7,Low,Yes,Medium,High,Female,Yes,Low,No,No,Yes,No,No
0.9875,0.716667,High,No,Low,Low,Female,Yes,Medium,Yes,No,Yes,No,No
0.5,0.833333,Medium,Yes,Medium,High,Female,Yes,Low,Yes,Yes,Yes,No,No
0.5,0.633333,High,No,High,Low,Female,No,Low,Yes,Yes,Yes,Yes,No
0.45,0.966667,Low,No,High,Low,Male,No,Low,Yes,Yes,No,No,No
0.9875,0.983333,None,Yes,Low,High,Female,No,Medium,No,Yes,No,No,No
0.7625,0.033333,Medium,No,High,High,Female,No,High,No,Yes,No,Yes,No
0.225,0.516667,None,Yes,High,Medium,Female,No,High,Yes,No,No,Yes,No
0.5875,0.166667,High,No,High,Low,Male,No,Low,Yes,Yes,No,No,No
0.0125,0.616667,Low,No,High,High,Male,Yes,Low,No,Yes,Yes,No,No
0.5875,0.85,High,Yes,Low,Low,Female,No,High,Yes,No,No,Yes,No
0.8,0.733333,Medium,No,High,Medium,Male,Yes,High,Yes,Yes,Yes,No,No
0.7875,0.233333,Medium,No,High,Medium,Female,Yes,Medium,No,No,No,Yes,No
0.325,0.966667,None,Yes,Medium,Medium,Male,No,High,No,Yes,No,Yes,No
0.75,0.75,Medium,No,Low,Low,Male,Yes,Low,No,No,Yes,Yes,No
0.1875,0.333333,Low,Yes,High,Medium,Female,Yes,Medium,Yes,Yes,Yes,Yes,No
0.525,0.266667,None,No,Medium,High,Female,No,High,Yes,Yes,No,Yes,No
0.0375,0.05,High,No,Low,Low,Male,Yes,High,No,Yes,Yes,No,No
0.8,0.133333,Low,Yes,Medium,Medium,Male,No,High,Yes,No,Yes,No,No
0.35,0.883333,None,Yes,High,Low,Male,No,High,Yes,Yes,Yes,No,No
0.2,1,Medium,Yes,High,Medium,Female,Yes,Low,Yes,Yes,Yes,Yes,No
0.025,0.416667,Low,Yes,Medium,High,Female,Yes,High,Yes,Yes,Yes,No,No
0.1,0.433333,Medium,Yes,Medium,Medium,Male,Yes,Medium,No,No,Yes,No,No
0.925,0.65,High,No,High,Low,Female,Yes,Low,No,No,Yes,Yes,No
0.675,0.783333,Low,No,Medium,Low,Male,Yes,High,No,Yes,Yes,Yes,No
0.15,0.166667,Medium,No,Low,Low,Male,No,Medium,Yes,Yes,Yes,No,No
0.3875,0.133333,None,Yes,Medium,Medium,Female,Yes,Low,No,Yes,No,Yes,No
0.6375,0.016667,High,Yes,Low,Low,Male,Yes,Low,No,Yes,No,No,No
0.6875,0.866667,Low,Yes,Low,Low,Male,Yes,Medium,Yes,Yes,Yes,No,No
0.7625,0.266667,High,Yes,Low,Medium,Male,Yes,Low,Yes,Yes,Yes,No,No
0.95,0.866667,None,No,Low,High,Female,No,Low,No,Yes,Yes,Yes,No
0.4625,0.066667,Medium,No,Medium,High,Male,Yes,Medium,Yes,No,No,Yes,No
0.2,0.05,High,No,Low,High,Male,Yes,Medium,No,Yes,No,No,No
0.5,0.466667,None,No,High,Medium,Female,Yes,High,Yes,No,No,No,No
0.05,0.166667,Low,No,Medium,Low,Female,No,High,No,No,No,Yes,No
0.175,0.75,None,No,Medium,Low,Female,Yes,Medium,Yes,No,Yes,Yes,No
0.7875,0.766667,Medium,No,High,Medium,Female,Yes,High,Yes,Yes,Yes,Yes,No
0.625,0.083333,Low,Yes,Low,High,Female,No,Medium,No,Yes,Yes,No,No
0.9125,0.133333,Low,Yes,Low,Medium,Male,No,High,No,No,No,Yes,No
0.2125,0.833333,Medium,No,Medium,High,Male,Yes,Medium,Yes,No,No,No,No
0.825,0.883333,Low,No,Low,Low,Female,Yes,Medium,Yes,No,Yes,No,No
0.075,0,Medium,No,High,Low,Female,No,Medium,Yes,Yes,Yes,No,No
0.275,0.683333,None,Yes,Medium,High,Male,Yes,Medium,Yes,Yes,Yes,Yes,No
0.7375,0.1,Low,No,Low,Medium,Male,No,Low,Yes,No,Yes,No,No
0.6875,0.416667,Medium,No,Medium,Low,Male,Yes,Medium,Yes,No,Yes,Yes,No
0.75,0.6,High,Yes,High,High,Female,No,High,No,Yes,Yes,No,No
0.275,0.3,Low,Yes,High,Medium,Male,Yes,Low,Yes,No,Yes,No,No
0.325,0.216667,Low,No,Low,Low,Male,Yes,Medium,No,No,Yes,Yes,No
0.0875,0.166667,None,No,Medium,Medium,Female,Yes,Medium,Yes,Yes,Yes,Yes,No
0.6125,0.2,High,No,Low,High,Male,Yes,Medium,Yes,No,Yes,Yes,No
0.7625,0.533333,Low,Yes,Medium,Low,Male,Yes,High,Yes,No,Yes,No,No
0.7625,0.966667,None,Yes,High,Medium,Female,Yes,Medium,Yes,Yes,Yes,Yes,No
0.025,0.433333,High,No,High,Medium,Male,No,Low,Yes,Yes,No,No,No
0.1625,0.483333,Medium,No,Low,Medium,Male,No,Low,Yes,No,Yes,No,No
0.7,0.7,Low,No,High,High,Female,No,Low,Yes,No,Yes,Yes,No
0.3625,0.716667,Medium,No,High,Medium,Male,No,Low,No,No,No,No,No
0.6125,0.583333,Medium,Yes,High,Low,Female,No,Medium,No,Yes,Yes,No,No
0.975,0.566667,High,No,Low,High,Male,No,High,Yes,Yes,Yes,No,No
0.925,0.466667,Medium,No,High,Low,Female,Yes,High,No,Yes,Yes,No,No
0.5625,0.216667,None,Yes,Low,Medium,Female,Yes,High,No,Yes,Yes,Yes,No
0.2,0.266667,Low,No,Low,High,Female,Yes,Medium,Yes,No,Yes,Yes,No
0.275,0,High,No,Medium,Medium,Female,No,Medium,No,Yes,No,Yes,No
0.85,0.15,Low,No,High,Low,Female,No,High,No,No,No,No,No
0.8625,0.75,None,No,Low,Medium,Male,Yes,Low,No,No,Yes,Yes,No
0.8125,0.283333,None,No,Medium,Low,Male,No,Low,Yes,Yes,No,No,No
0.825,0.083333,Medium,No,Low,Low,Male,No,Medium,Yes,Yes,Yes,Yes,No
0.7625,0.033333,Medium,No,High,Low,Female,Yes,High,Yes,No,No,No,No
0.1125,0.716667,Low,No,Low,Low,Female,Yes,Low,No,No,No,Yes,No
0.3875,0.233333,Low,No,Medium,High,Female,Yes,High,Yes,No,Yes,Yes,No
0.6625,0.85,Medium,No,Medium,Low,Female,Yes,High,Yes,Yes,No,Yes,No
0.375,0.033333,Medium,Yes,Medium,Medium,Female,Yes,Low,No,No,No,No,No
0.1875,0.566667,Medium,Yes,Low,Medium,Female,No,Low,Yes,Yes,No,Yes,No
0.0875,0.616667,None,Yes,Medium,Low,Male,Yes,High,Yes,Yes,No,Yes,No
0.15,0.816667,Low,Yes,Low,Low,Male,Yes,High,Yes,Yes,Yes,Yes,No
0.925,0.033333,High,No,Low,Low,Male,No,Low,No,Yes,Yes,No,No
0.1,0.083333,Low,No,High,High,Female,No,Low,Yes,Yes,No,Yes,No
0.15,0.766667,High,No,Medium,High,Male,No,High,Yes,Yes,Yes,No,No
0.1,0.4,Medium,No,Low,High,Male,Yes,High,No,No,Yes,No,No
0.225,0.966667,None,No,Medium,Medium,Male,No,Medium,Yes,Yes,Yes,No,No
0.5375,0.816667,Low,Yes,High,Medium,Female,Yes,Low,Yes,Yes,No,No,No
0.7375,0.566667,Medium,No,Medium,Low,Female,Yes,Low,Yes,No,Yes,No,No
0.85,0.6,None,No,Medium,Low,Female,Yes,High,No,Yes,Yes,Yes,No
0.225,0.416667,None,No,Medium,High,Male,Yes,Low,No,No,Yes,No,No
0.575,0.033333,Low,No,Medium,Medium,Female,Yes,Medium,No,No,No,No,No
0,0.266667,Low,No,Medium,Low,Female,Yes,High,No,No,No,Yes,No
0.325,0.35,Low,No,Low,High,Male,Yes,Medium,No,Yes,Yes,Yes,No
0.875,0.333333,Medium,No,Low,Low,Male,No,Medium,Yes,No,Yes,No,No
0.975,1,None,Yes,Low,Medium,Male,Yes,High,Yes,Yes,No,No,No
0.0375,0.25,Medium,No,High,Low,Female,No,Medium,No,No,Yes,Yes,No
0.85,0.766667,None,No,Low,Low,Male,No,Low,Yes,Yes,No,Yes,No
0.7375,0.15,None,No,Low,Low,Male,Yes,Low,Yes,No,Yes,No,No
0.0375,0.7,Medium,Yes,Medium,High,Male,Yes,High,Yes,Yes,Yes,Yes,No
0.7875,0.983333,Low,No,Low,High,Female,No,High,Yes,No,No,Yes,No
0.375,0.95,Low,Yes,High,High,Male,Yes,High,No,No,Yes,Yes,No
0.35,0.216667,None,No,Low,High,Female,Yes,Medium,No,Yes,Yes,Yes,No
0,0.916667,High,No,High,Medium,Female,No,High,No,Yes,Yes,Yes,No
0.3375,0.566667,Low,No,Medium,Low,Male,No,High,No,Yes,No,No,No
0.725,0.45,Low,Yes,High,Low,Female,No,Medium,No,Yes,Yes,No,No
0.9375,0.3,Medium,Yes,High,Low,Female,Yes,Medium,No,No,No,No,No
0,0.033333,High,Yes,High,Medium,Female,No,Medium,Yes,No,No,No,No
0.4,0.583333,Medium,No,High,Medium,Male,Yes,Medium,Yes,No,Yes,Yes,No
0.425,0.9,High,No,Low,Low,Female,No,High,Yes,No,No,Yes,No
0.7125,0.433333,Low,Yes,Low,Low,Male,Yes,Low,No,No,No,No,No
0.0375,0.05,Low,Yes,Low,High,Male,Yes,Medium,Yes,Yes,No,No,No
0.425,0.366667,Medium,No,Medium,Medium,Female,No,Low,No,No,No,No,No
0.9625,0.416667,Medium,No,High,High,Female,No,Medium,No,Yes,Yes,No,No
0.0875,0,Low,Yes,High,Medium,Female,No,Low,Yes,Yes,Yes,Yes,No
0.7375,0.833333,High,No,Medium,Low,Male,Yes,Medium,Yes,No,No,No,No
0.6625,0.75,Low,No,High,Low,Female,No,Medium,No,Yes,No,No,No
0.325,0.383333,None,Yes,Medium,Low,Male,Yes,Medium,No,No,No,No,No
1,0.9,Medium,Yes,Low,Medium,Female,No,Medium,No,No,No,No,No
0.925,0.4,None,No,Medium,Low,Female,Yes,Low,No,Yes,Yes,No,No
0.725,0.083333,None,No,Medium,High,Male,No,High,No,Yes,No,Yes,No
0.9875,0.55,None,Yes,High,High,Male,Yes,Medium,Yes,No,Yes,Yes,No
0.6125,0.283333,None,Yes,Medium,High,Female,Yes,High,Yes,Yes,Yes,No,No
0.675,0.866667,None,No,Medium,High,Female,Yes,High,Yes,Yes,Yes,No,No
0.425,0.45,Low,Yes,Medium,Medium,Female,Yes,Low,Yes,Yes,No,Yes,No
0.8625,0.2,None,No,Medium,Medium,Female,No,Low,No,Yes,Yes,No,No
0.675,0.233333,None,Yes,High,Medium,Female,Yes,High,Yes,No,No,Yes,No
0.2,1,Medium,Yes,High,Medium,Female,Yes,Low,Yes,Yes,Yes,Yes,No
0.25,0,Low,No,Low,Medium,Female,Yes,High,Yes,Yes,No,No,No
0.8375,0.55,Low,Yes,High,Medium,Male,No,Low,Yes,Yes,Yes,Yes,No
0.375,0.4,High,No,Low,Medium,Female,No,Low,No,Yes,Yes,Yes,No
0.225,0.833333,None,Yes,Low,Low,Female,No,Low,No,No,Yes,Yes,No
0.9125,0.916667,High,Yes,Medium,High,Male,No,Medium,No,No,No,Yes,No
0.5125,0.25,Low,No,Medium,Medium,Male,No,Medium,Yes,No,No,Yes,No
0.45,0.366667,Low,Yes,Low,Medium,Male,Yes,High,Yes,No,Yes,Yes,No
0.7,0.85,Medium,Yes,Medium,High,Male,No,High,Yes,No,Yes,Yes,No
0.7,0.5,Medium,No,High,Low,Female,No,Medium,Yes,Yes,Yes,No,No
0.8125,0.383333,Low,Yes,Low,Low,Female,Yes,High,No,Yes,Yes,No,No
0.3125,0.283333,None,Yes,Medium,Low,Female,No,Medium,Yes,Yes,Yes,Yes,No
0.4375,0.166667,High,Yes,Low,Low,Male,No,Medium,Yes,No,Yes,Yes,No
0.0625,0.45,Medium,Yes,Medium,Medium,Male,Yes,High,No,No,Yes,Yes,No
0.575,0.4,Low,No,High,High,Male,Yes,Medium,Yes,No,No,No,No
0.1625,0,Medium,No,Low,High,Male,No,Low,No,No,No,No,No
0.0875,0.05,Low,No,Low,Low,Female,Yes,Low,No,Yes,Yes,No,No
0.9,0.383333,High,No,High,Medium,Male,No,Medium,Yes,No,No,Yes,No
0.3375,0.65,None,Yes,High,Medium,Male,Yes,Low,No,Yes,No,No,No
0.575,0.233333,High,Yes,Medium,High,Female,No,Low,No,No,Yes,Yes,No
0.4875,0.516667,Medium,Yes,Low,High,Male,Yes,High,No,No,No,No,No
0.825,0.683333,Low,Yes,Low,Low,Male,Yes,High,No,Yes,No,Yes,No
0.6625,0.9,High,No,Medium,High,Male,Yes,Low,No,Yes,Yes,Yes,No
0.825,0.816667,High,Yes,Low,High,Female,No,Low,Yes,Yes,Yes,No,No
0.8125,0.666667,High,Yes,Low,High,Male,No,Low,Yes,Yes,No,Yes,No
0.375,0.816667,None,Yes,Low,High,Female,No,High,No,Yes,No,No,No
0.2875,0.933333,Low,Yes,Low,High,Male,Yes,High,Yes,Yes,Yes,No,No
0.55,0.1,High,Yes,Low,Low,Female,Yes,High,Yes,Yes,Yes,No,No
0.3125,0.333333,None,No,High,Medium,Male,No,Medium,No,Yes,No,No,No
0.1125,0.2,Low,No,High,High,Male,No,Medium,Yes,No,Yes,Yes,No
0.975,0.633333,Low,Yes,High,High,Female,Yes,Medium,Yes,Yes,No,Yes,No
0.0875,0.883333,Medium,No,Low,Medium,Male,Yes,High,No,No,No,Yes,No
0.7875,0.2,Medium,No,Low,Low,Male,No,Medium,Yes,Yes,No,Yes,No
0.3375,0.333333,Medium,Yes,Low,Medium,Female,Yes,High,Yes,No,Yes,No,No
0.725,0.716667,Low,No,Medium,Low,Male,No,High,No,Yes,Yes,Yes,No
0.5,0.933333,Low,No,High,Medium,Male,No,High,Yes,No,Yes,Yes,No
0.7375,0.983333,None,Yes,Medium,Medium,Male,No,Low,Yes,No,Yes,No,No
0.0375,0.5,High,No,Low,Low,Female,No,Medium,Yes,No,No,No,No
0.5375,0.533333,Medium,No,High,High,Female,Yes,Low,No,No,No,Yes,No
0.175,0.116667,None,No,High,Low,Female,Yes,Low,No,No,Yes,Yes,No
0.875,0.15,None,Yes,High,High,Male,No,Low,No,Yes,No,No,No
0.9125,0.95,High,Yes,Medium,High,Female,Yes,High,Yes,Yes,Yes,No,No
0.9375,0.55,Low,No,High,High,Male,No,Medium,No,No,No,Yes,No
0.5375,0.933333,High,No,High,High,Female,Yes,Medium,No,Yes,Yes,No,No
0.6625,0.1,Low,No,Low,Medium,Male,No,Medium,No,No,Yes,Yes,No
0.2125,0.766667,Low,Yes,High,High,Female,No,High,Yes,Yes,Yes,No,No
0.0375,0.616667,High,Yes,High,Medium,Male,Yes,Low,No,Yes,No,No,No
0.8625,0.933333,Low,No,Medium,Low,Female,No,Low,Yes,Yes,Yes,No,No
0.0875,0.616667,None,Yes,Medium,Low,Male,Yes,High,Yes,Yes,No,Yes,No
0.5,0.983333,None,Yes,Medium,Low,Female,Yes,High,Yes,No,Yes,No,No
0.2375,0.4,Low,No,Low,Medium,Male,No,High,Yes,No,No,Yes,No
0.1,0.783333,Low,No,Low,Low,Female,No,Medium,Yes,Yes,Yes,No,No
0.2875,0.583333,High,Yes,High,Low,Female,No,Medium,No,No,Yes,Yes,No
0.025,0.783333,None,No,Medium,Medium,Female,No,Medium,No,No,Yes,Yes,No
0.1625,0.033333,Medium,No,Low,Low,Male,No,Medium,Yes,Yes,Yes,Yes,No
0,0.15,High,No,High,Medium,Male,No,High,No,No,Yes,No,No
0.1875,0.266667,High,Yes,Medium,Low,Male,No,Medium,No,No,Yes,Yes,No
0.15,0.083333,Medium,Yes,High,Low,Female,No,High,Yes,Yes,No,No,No
0.65,0.666667,Medium,Yes,Low,High,Male,No,Low,Yes,Yes,No,Yes,No
0.7,0.233333,Medium,No,Medium,High,Female,Yes,Low,No,Yes,Yes,Yes,No
1,0.9,High,Yes,Medium,High,Female,Yes,High,Yes,Yes,Yes,No,No
0.275,0.783333,High,No,Low,Medium,Female,Yes,High,No,No,No,Yes,No
0.2875,0.816667,High,Yes,Low,High,Female,Yes,High,Yes,No,No,Yes,No
0.225,0.85,Medium,Yes,Low,Medium,Female,No,High,Yes,Yes,No,No,No
0.65,0.283333,Medium,No,Medium,Low,Female,Yes,Medium,No,No,Yes,No,No
0.1125,0.333333,None,Yes,Low,Medium,Female,Yes,Low,Yes,Yes,Yes,Yes,No
0,0.683333,Medium,Yes,Medium,Low,Male,No,Medium,Yes,Yes,Yes,Yes,No
0.35,0.883333,High,No,Medium,Low,Female,No,Medium,Yes,Yes,No,No,No
0.2375,0.016667,Low,Yes,High,Medium,Male,Yes,Medium,No,Yes,Yes,Yes,No
0.175,0.466667,None,Yes,Low,Medium,Male,No,Medium,No,No,Yes,Yes,No
0.2125,0.316667,High,No,High,Low,Female,Yes,Low,Yes,Yes,No,No,No
0.6,0.733333,None,No,Medium,High,Female,No,Low,No,Yes,Yes,Yes,No
0.9125,0.466667,None,No,Low,Medium,Female,No,Low,No,No,Yes,No,No
0.2125,0.233333,None,No,Low,Medium,Male,No,Low,Yes,No,No,No,No
0.0875,0.283333,High,No,Medium,Low,Male,No,Medium,Yes,Yes,Yes,Yes,No
0.1375,0.4,Low,Yes,High,High,Male,Yes,High,Yes,Yes,Yes,Yes,No
0.725,0.833333,Medium,Yes,Medium,Low,Female,No,Low,No,No,Yes,No,No
0.225,0.583333,Medium,Yes,Medium,Low,Male,Yes,High,Yes,No,No,No,No
0.325,0.216667,High,No,Low,High,Male,No,High,No,No,No,No,No
0.175,0.466667,None,Yes,Low,Medium,Male,No,Medium,No,No,Yes,Yes,No
0.2125,0.633333,None,Yes,Low,High,Female,No,Low,Yes,No,Yes,Yes,No
0.8625,0.666667,High,No,High,Medium,Male,No,High,Yes,No,Yes,No,No
0.925,0.466667,None,No,Medium,Medium,Female,No,High,No,Yes,No,No,No
0.6875,0.016667,Low,No,Medium,Low,Male,No,Low,No,Yes,Yes,Yes,No
0.6375,0.2,None,No,Medium,Medium,Female,Yes,Low,No,Yes,Yes,No,No
0.4625,0.25,Medium,No,Medium,High,Female,No,Medium,Yes,Yes,Yes,Yes,No
0.6625,0.766667,None,Yes,Low,Medium,Female,Yes,High,No,Yes,No,Yes,No
0.1,0.866667,Low,Yes,Medium,High,Female,Yes,Low,Yes,No,No,No,No
0.2875,0.55,Low,Yes,Medium,High,Female,Yes,Medium,No,Yes,Yes,No,No
0.25,0,Low,No,Low,Medium,Female,Yes,High,Yes,Yes,No,No,No
0.1875,0.866667,Low,No,Medium,High,Female,No,Medium,Yes,Yes,Yes,No,No
0.5375,0.3,High,Yes,Medium,Low,Male,Yes,High,No,No,Yes,Yes,No
0.5125,0.733333,High,Yes,High,Low,Male,Yes,Low,Yes,No,No,No,No
0.7875,0.133333,None,No,High,Medium,Male,No,Low,No,Yes,No,No,No
0.5625,0.7,None,Yes,Low,Medium,Male,No,Low,No,No,Yes,No,No
0.95,0.633333,High,No,Medium,High,Male,Yes,Medium,No,No,Yes,Yes,No
0.6875,0,High,Yes,Low,Low,Female,Yes,High,Yes,No,No,Yes,No
0.9625,0.8,High,No,Medium,Low,Male,Yes,Medium,Yes,No,Yes,Yes,No
0.6625,0.566667,Medium,No,Low,Medium,Male,Yes,Medium,No,Yes,No,No,No
0.5375,0.366667,None,Yes,Medium,Medium,Female,No,Low,No,Yes,No,Yes,No
0.7375,0.583333,Medium,Yes,High,Medium,Female,No,Medium,Yes,No,Yes,No,No
0.7875,0.083333,Low,No,High,Low,Male,No,High,Yes,No,No,Yes,No
0.9875,0.05,Low,Yes,Medium,High,Female,Yes,Medium,Yes,Yes,Yes,No,No
0.4875,0.266667,None,Yes,Medium,Low,Female,Yes,Medium,Yes,No,Yes,Yes,No
0.15,0.533333,Low,No,High,Low,Male,No,High,No,Yes,No,Yes,No
0.8625,0.116667,Low,Yes,Medium,Medium,Female,Yes,Medium,Yes,Yes,Yes,No,No
0.775,0.883333,None,No,Low,High,Female,Yes,Medium,No,Yes,Yes,Yes,No
0.5875,0.483333,Medium,No,Low,High,Female,Yes,Low,Yes,Yes,No,No,No
0.775,0.05,None,No,Low,High,Female,No,Medium,Yes,No,Yes,No,No
0.9125,0.616667,None,Yes,Medium,High,Male,No,Low,No,No,Yes,Yes,No
0.7125,0.5,Low,Yes,Medium,High,Male,No,Low,No,No,Yes,No,No
0,0.316667,High,Yes,High,High,Female,Yes,Low,No,Yes,Yes,No,No
0.7375,0.033333,None,Yes,Low,Medium,Female,Yes,High,No,No,No,No,No
0.8375,0.233333,Low,Yes,High,Low,Female,Yes,High,No,Yes,No,No,No
0.0625,0.9,Medium,No,High,High,Male,No,Medium,Yes,No,No,Yes,No
0.3,0.866667,None,Yes,Medium,High,Male,Yes,High,Yes,Yes,Yes,No,No
0.8,0.783333,Low,No,Low,High,Female,Yes,High,Yes,No,Yes,No,No
1,0.266667,High,No,Medium,Medium,Female,Yes,High,No,Yes,Yes,No,No
0.875,1,Medium,No,High,Low,Female,No,Medium,Yes,No,No,Yes,No
0.0125,0.766667,High,No,High,High,Female,Yes,High,No,Yes,Yes,Yes,No
0.675,0.65,Low,No,Low,Medium,Male,Yes,High,No,Yes,Yes,Yes,No
0.375,0.966667,Medium,Yes,High,High,Female,Yes,Medium,Yes,Yes,No,No,No
0.3,0.8,Low,No,High,Low,Female,No,Low,No,Yes,No,No,No
0.05,0.95,Medium,Yes,Medium,High,Female,No,Medium,No,No,No,Yes,No
0.6375,0.783333,Low,Yes,Medium,High,Male,Yes,Low,No,No,Yes,No,No
0.6,0.516667,High,No,Low,High,Male,Yes,High,No,No,No,Yes,No
0.7625,0.683333,Low,Yes,Medium,High,Female,Yes,Low,Yes,No,No,No,No
0.45,0.366667,None,Yes,Medium,Low,Male,Yes,Low,Yes,Yes,No,Yes,No
0.1875,0.866667,Low,Yes,Low,Medium,Male,No,Medium,No,No,Yes,Yes,No
0.8625,0.983333,Medium,Yes,Medium,Medium,Female,No,Medium,Yes,Yes,Yes,No,No
0.525,0.55,Medium,Yes,Medium,Low,Female,Yes,High,Yes,Yes,No,Yes,No
0.625,0.666667,None,No,Medium,Medium,Male,Yes,Medium,No,No,No,Yes,No
0,0.35,None,Yes,Medium,Medium,Male,No,Low,No,No,No,Yes,No
0.75,0.4,None,No,High,Medium,Female,Yes,Medium,Yes,Yes,No,No,No
0.6375,0.266667,None,No,Medium,Low,Male,Yes,Medium,No,Yes,No,No,No
0.95,0.55,High,Yes,High,High,Female,No,High,No,No,No,Yes,No
0.95,0.133333,Medium,No,Medium,High,Female,Yes,Low,No,No,No,Yes,No
0.2375,0.133333,High,No,High,Low,Female,Yes,Low,No,Yes,Yes,No,No
0.425,0.65,None,No,Medium,Low,Male,Yes,High,Yes,Yes,Yes,Yes,No
0.6875,0.383333,High,No,High,High,Male,Yes,Low,No,Yes,Yes,No,No
0.05,0.816667,None,No,Low,High,Female,Yes,Low,No,No,Yes,Yes,No
0.4,0.05,Low,Yes,Low,Medium,Male,Yes,Low,No,No,Yes,No,No
0.1875,0.333333,None,Yes,High,Medium,Male,No,Low,Yes,No,Yes,No,No
0.3875,0.716667,None,No,Medium,High,Female,No,Low,No,No,Yes,No,No
0.4125,0.216667,Medium,Yes,High,Medium,Female,Yes,High,Yes,Yes,No,Yes,No
0.5375,0.2,Low,No,Low,Medium,Female,No,High,No,No,No,Yes,No
0.675,0.7,High,Yes,Medium,High,Male,No,Medium,Yes,Yes,No,Yes,No
0.4875,0.083333,Medium,No,High,High,Male,Yes,High,No,Yes,Yes,Yes,No
0.7125,0.5,High,Yes,Medium,High,Female,No,Medium,No,No,Yes,Yes,No
0.0875,0.733333,Low,No,Medium,High,Female,Yes,Low,Yes,Yes,No,Yes,No
0.7375,0.566667,Medium,No,Medium,Low,Female,Yes,Low,Yes,No,Yes,No,No
0.05,0.6,None,Yes,High,Low,Male,No,Low,No,Yes,No,No,No
0,0.866667,Low,No,Medium,Medium,Male,Yes,Low,Yes,Yes,No,Yes,No
0.6625,0.35,Medium,No,Low,High,Male,No,Low,Yes,Yes,No,No,No
0.9625,0.916667,High,No,High,Medium,Female,Yes,High,No,No,No,No,No
0.7625,0.3,None,Yes,Medium,High,Female,No,Low,No,Yes,Yes,Yes,No
0.375,0.3,Medium,Yes,High,Medium,Male,No,Low,Yes,No,Yes,Yes,No
0.925,0.216667,Medium,No,Low,Low,Female,No,Low,No,No,No,Yes,No
0.25,0.25,High,No,Low,Low,Female,Yes,Low,Yes,No,Yes,No,No
0.7375,0.866667,Medium,No,Medium,Low,Male,No,Low,Yes,Yes,Yes,Yes,No
0.85,0.583333,Medium,Yes,Medium,Medium,Male,No,High,No,Yes,No,No,No
0.875,0.533333,Medium,Yes,Medium,High,Female,No,High,Yes,No,Yes,Yes,No
0.275,0,High,No,Medium,Medium,Female,No,Medium,No,Yes,No,Yes,No
0.1,0.95,Low,No,High,High,Female,Yes,High,Yes,No,No,Yes,No
0.525,0.05,Medium,Yes,High,Low,Female,No,High,No,Yes,No,No,No
0.55,0.45,Medium,Yes,Low,Low,Male,No,Low,Yes,No,No,Yes,No
0.9625,0.3,High,Yes,Medium,High,Male,No,Medium,Yes,Yes,No,No,No
0.65,0.916667,High,No,High,High,Male,No,Medium,Yes,Yes,Yes,Yes,No
0.15,0.416667,High,No,Medium,Low,Male,No,Low,Yes,No,No,No,No
0.1875,0.6,Low,Yes,High,Medium,Male,Yes,Medium,No,No,No,Yes,No
0.75,0.966667,Low,Yes,High,Low,Female,No,High,No,Yes,Yes,Yes,No
0.475,0.1,Medium,Yes,Low,Low,Female,No,High,Yes,No,Yes,No,No
0.6125,0.916667,None,No,Low,Low,Female,No,High,No,Yes,No,No,No
0.8125,0.066667,None,No,Medium,High,Female,No,High,Yes,Yes,Yes,Yes,No
0.7625,0.716667,High,Yes,High,Low,Female,No,High,No,Yes,Yes,No,No
0.7375,0.966667,High,Yes,Low,Medium,Male,No,Low,Yes,No,No,No,No
0.15,0.783333,None,No,High,Medium,Female,No,High,Yes,No,No,No,No
0.85,0.15,Medium,No,High,Medium,Female,No,Medium,No,Yes,No,Yes,No
0.7875,0.266667,None,Yes,High,Medium,Female,No,Low,Yes,Yes,Yes,Yes,No
0.85,0.933333,High,Yes,Low,High,Female,Yes,Medium,No,No,Yes,No,No
0.0875,0.3,High,Yes,Medium,Low,Male,No,Medium,No,Yes,Yes,Yes,No
0.4,0.3,High,No,High,High,Male,Yes,Low,No,No,Yes,Yes,No
0.8375,0.883333,Low,No,Low,High,Female,No,High,Yes,Yes,No,No,No
0.4625,0.133333,None,No,Medium,Medium,Female,No,Low,Yes,Yes,No,Yes,No
0.9625,0.916667,Low,No,Medium,High,Female,No,Medium,No,No,Yes,No,No
0.85,0.033333,High,No,Low,Medium,Male,No,Medium,No,No,Yes,No,No
0.775,0.35,Low,Yes,Low,Low,Female,Yes,High,No,Yes,Yes,Yes,No
0.8125,0.45,None,Yes,Medium,High,Female,No,Medium,No,No,Yes,Yes,No
0.5,0.15,Low,Yes,High,High,Male,Yes,Medium,Yes,Yes,Yes,Yes,No
0.325,0.5,High,No,Low,Medium,Male,Yes,High,Yes,No,Yes,No,No
0.675,0.583333,High,No,Medium,Medium,Male,No,Low,Yes,Yes,Yes,No,No
0.0875,0.75,Medium,No,High,Low,Male,No,Medium,No,Yes,Yes,No,No
0.75,0.4,Low,Yes,Medium,Medium,Male,Yes,Low,No,No,No,Yes,No
0.7,0.683333,Medium,Yes,Low,Medium,Male,Yes,High,No,No,Yes,Yes,No
0.225,0.933333,None,No,Medium,Low,Female,No,Medium,Yes,No,No,Yes,No
0.45,0.516667,Low,Yes,Low,High,Female,Yes,Medium,Yes,Yes,No,Yes,No
0.175,0.933333,Low,No,Medium,High,Male,No,Medium,No,Yes,Yes,Yes,No
0.6875,0.75,None,No,Low,Low,Female,No,Low,No,Yes,Yes,No,No
0.3,0.05,Medium,No,High,Low,Female,Yes,Low,No,No,Yes,No,No
0.4625,0.5,None,No,Medium,Medium,Female,Yes,Low,Yes,No,Yes,Yes,No
0.25,0.183333,High,Yes,High,High,Male,Yes,Medium,No,No,Yes,Yes,No
0.2125,0.116667,None,Yes,Low,Low,Male,Yes,Medium,No,No,Yes,No,No
0.9125,0.7,None,Yes,Medium,Medium,Female,Yes,Low,Yes,No,Yes,No,No
0.8625,0.866667,Medium,No,Medium,Low,Female,Yes,Low,No,Yes,Yes,Yes,No
0.8625,0.25,Medium,Yes,Low,Medium,Male,No,Low,Yes,No,Yes,Yes,No
0.8375,0.3,None,No,Medium,Low,Female,No,Low,Yes,No,No,Yes,No
1,0.25,None,Yes,Medium,Medium,Female,Yes,Low,Yes,Yes,Yes,No,No
0.6,0.666667,None,No,Medium,Low,Female,Yes,Medium,Yes,Yes,No,No,No
0.4,0.35,None,Yes,Low,Medium,Female,Yes,High,Yes,No,Yes,Yes,No
0.775,0.45,Low,No,High,High,Female,No,Medium,No,Yes,No,Yes,No
0.4125,0.083333,Low,Yes,Medium,High,Male,No,High,No,No,Yes,Yes,No
0,0.833333,Low,Yes,Low,Medium,Male,Yes,Low,No,No,Yes,Yes,No
0.025,0.983333,High,No,High,Medium,Female,Yes,Medium,No,No,No,No,No
0.6,0.666667,High,No,Low,Low,Male,Yes,High,No,Yes,No,Yes,No
0.5625,1,High,No,Medium,High,Female,No,High,Yes,No,Yes,Yes,No
0.7875,0.383333,Medium,No,Low,High,Female,No,Medium,No,No,No,Yes,No
0.0875,0.95,None,Yes,Low,Low,Female,No,Low,Yes,No,No,No,No
0.75,0.666667,None,Yes,Low,Medium,Female,Yes,High,Yes,No,No,No,No
0.575,0.066667,Medium,Yes,Medium,Medium,Female,No,Low,Yes,No,Yes,No,No
0.975,0.55,High,No,High,Low,Male,Yes,High,No,No,No,No,No
0.5875,0.883333,Low,No,Medium,Medium,Male,No,Low,Yes,No,No,Yes,No
0.9,0.65,High,Yes,Low,Low,Female,Yes,Medium,No,No,No,No,No
0.5375,0.85,High,No,High,Medium,Female,No,High,No,No,Yes,Yes,No
0.425,0.583333,Medium,No,High,Low,Male,Yes,High,Yes,Yes,No,No,No
0.725,0.983333,Medium,No,Medium,Low,Female,Yes,High,No,Yes,No,No,No
0.45,0.15,High,No,Medium,Low,Female,Yes,Medium,Yes,Yes,Yes,No,No
0.3125,0.7,Low,Yes,High,Low,Female,Yes,Medium,No,Yes,No,No,No
0.7,0.05,Low,No,Low,Low,Male,No,Medium,No,No,No,Yes,No
0.3375,0.733333,None,Yes,High,Low,Male,Yes,Low,No,Yes,No,No,No
0.3625,0.933333,Low,No,Medium,Medium,Female,No,High,Yes,No,Yes,No,No
0.9875,0.166667,Low,No,Low,Low,Female,Yes,Medium,Yes,Yes,Yes,Yes,No
0.625,0.9,None,Yes,Medium,Medium,Female,No,High,No,Yes,Yes,Yes,No
0.975,0.65,High,Yes,High,Low,Female,Yes,Low,Yes,Yes,Yes,No,No
0.5,0.983333,None,Yes,Medium,Low,Female,Yes,High,Yes,No,Yes,No,No
0.1875,0.45,None,Yes,Medium,Low,Male,No,Low,No,Yes,Yes,No,No
0.775,0.783333,None,Yes,Low,High,Male,Yes,High,Yes,No,No,Yes,No
0.4125,0.1,Low,Yes,High,Low,Female,Yes,High,Yes,No,No,No,No
0.7125,0.35,Medium,No,Medium,Low,Male,Yes,Medium,No,No,No,Yes,No
0.8125,0.483333,None,No,Low,Low,Male,Yes,High,No,No,No,No,No
0.2875,0.166667,Medium,Yes,Medium,High,Male,Yes,High,Yes,Yes,No,Yes,No
1,0.216667,High,Yes,Medium,Medium,Female,No,High,Yes,No,No,No,No
0.675,0.516667,High,No,High,Low,Male,No,Low,No,No,Yes,No,No
0.75,0.75,Medium,No,Low,Low,Male,Yes,Low,No,No,Yes,Yes,No
0.4625,0.45,Medium,No,Medium,Medium,Male,Yes,High,No,No,Yes,No,No
0.2,0.666667,Low,Yes,Low,Low,Male,No,High,Yes,No,Yes,No,No
0.925,0.35,Low,No,Medium,High,Female,No,Medium,No,Yes,Yes,No,No
0.8,0.866667,None,No,High,Medium,Female,Yes,Medium,No,Yes,No,Yes,No
0.2,0.133333,Medium,No,Low,High,Female,Yes,Low,Yes,Yes,No,No,No
0.55,0.65,Medium,No,Low,Medium,Male,Yes,Low,No,Yes,No,Yes,No
0.7125,0.383333,Medium,No,Low,High,Female,Yes,Medium,No,No,No,No,No
0.9875,0.166667,Low,No,Low,Low,Female,Yes,Low,No,No,Yes,Yes,No
0.0375,0.416667,High,No,High,Medium,Male,Yes,High,Yes,Yes,Yes,Yes,No
0.9875,0.733333,High,No,Medium,Medium,Female,No,High,No,No,Yes,Yes,No
0.0875,0.533333,Low,No,High,Low,Male,No,Low,Yes,No,No,Yes,No
0.9125,0.633333,None,No,High,High,Female,No,High,No,Yes,Yes,No,No
0.2,1,Medium,Yes,High,Medium,Female,Yes,Low,Yes,Yes,Yes,Yes,No
0.0125,0.6,High,Yes,Medium,Medium,Female,Yes,High,Yes,Yes,Yes,No,No
0.0375,0.333333,High,No,Medium,Medium,Female,Yes,Low,Yes,No,No,No,No
0.5,0.05,Medium,Yes,Low,Medium,Female,Yes,Medium,No,Yes,Yes,No,No
0.85,0.616667,Medium,No,Low,Medium,Female,No,Low,Yes,Yes,No,Yes,No
0.1625,0.9,Medium,No,Low,Medium,Male,No,Medium,No,Yes,No,Yes,No
0.825,0.183333,Low,No,High,Low,Female,No,Low,Yes,No,Yes,Yes,No
0.4625,0.483333,None,No,High,High,Female,Yes,Medium,No,No,Yes,Yes,No
0.9625,0.916667,Low,Yes,Medium,High,Female,Yes,High,Yes,No,Yes,No,No
0.0625,0.45,Medium,Yes,Low,High,Female,Yes,Low,No,Yes,No,No,No
0.9,1,Low,Yes,High,Medium,Male,Yes,Low,Yes,Yes,Yes,No,No
0.85,0.116667,High,No,Medium,Low,Male,Yes,Low,No,Yes,Yes,Yes,No
0.3,0.483333,Medium,Yes,Low,High,Female,No,Medium,Yes,No,Yes,Yes,No
0.2125,0.666667,Medium,No,High,High,Female,No,Medium,No,Yes,Yes,No,No
0.875,0.25,None,No,Low,Low,Female,No,Medium,No,No,No,Yes,No
0.3,0.316667,Medium,No,Low,High,Male,Yes,High,No,Yes,Yes,Yes,No
0.275,0.083333,None,No,High,Low,Male,No,High,No,Yes,No,No,No
0.7,0.383333,Low,No,Medium,Low,Female,Yes,Medium,Yes,No,No,Yes,No
0.35,0.633333,Medium,Yes,Low,Low,Female,No,High,No,Yes,No,No,No
0.6375,0.65,None,No,High,Low,Female,Yes,High,No,Yes,Yes,No,No
0.75,0.133333,Medium,Yes,Low,Medium,Female,Yes,Medium,No,Yes,No,No,No
0.0125,0.183333,Medium,No,Low,High,Male,No,Low,No,No,No,No,No
0.975,0.15,Low,No,High,Low,Male,Yes,High,Yes,Yes,No,Yes,No
0.725,0.15,Medium,Yes,Medium,High,Female,No,Low,Yes,Yes,No,Yes,No
0.8375,0.433333,Medium,No,Medium,High,Female,No,Low,No,Yes,Yes,No,No
0.2,0.483333,Low,No,High,High,Male,Yes,High,Yes,Yes,Yes,Yes,No
0.95,0.366667,High,Yes,High,Low,Male,Yes,Medium,No,No,Yes,Yes,No
0.7375,0.483333,Low,Yes,Medium,Low,Female,Yes,Low,Yes,No,No,No,No
0.0625,0.383333,None,No,Medium,Medium,Female,Yes,Low,Yes,No,No,No,No
0.15,0.466667,High,Yes,Low,High,Female,Yes,Low,Yes,Yes,Yes,Yes,No
0.475,0.766667,Low,Yes,Medium,High,Female,No,Medium,Yes,Yes,Yes,Yes,No
0.575,0.433333,Medium,No,Low,Medium,Female,No,High,No,Yes,No,No,No
0.775,0.116667,Low,No,High,Medium,Female,No,High,Yes,Yes,No,Yes,No
0.1,0.016667,High,Yes,Medium,Low,Male,Yes,High,No,No,No,No,No
0.4625,0.5,None,No,Medium,Medium,Female,Yes,Low,Yes,No,Yes,Yes,No
0.8375,0.216667,High,No,High,High,Female,No,Low,No,Yes,No,No,No
0.3875,0.733333,Medium,No,High,Low,Male,No,High,No,No,No,No,No
0.15,0.016667,Low,Yes,Medium,High,Male,No,Medium,No,Yes,No,Yes,No
0.5875,0.5,High,Yes,Medium,High,Female,Yes,High,Yes,Yes,Yes,No,No
0.55,0.7,Medium,No,High,Medium,Male,No,Medium,No,No,Yes,No,No
0.75,0.75,None,Yes,High,High,Female,Yes,Low,No,Yes,No,Yes,No
0.95,0.3,Medium,Yes,Low,Medium,Male,Yes,Low,Yes,Yes,No,Yes,No
0.0875,0.983333,None,Yes,High,Low,Female,Yes,Low,No,No,Yes,No,No
0.2,0.733333,Low,No,Low,Medium,Female,No,Medium,Yes,Yes,No,No,No
0.6125,0.95,None,Yes,High,Medium,Female,Yes,High,No,No,Yes,Yes,No
0.6625,0.916667,High,Yes,Low,High,Male,No,Low,No,Yes,Yes,Yes,No
0.675,0.816667,High,No,Low,Medium,Female,Yes,Low,No,No,Yes,Yes,No
0.0125,0.966667,High,Yes,Low,Low,Female,Yes,High,Yes,No,Yes,No,No
0.775,0.016667,Low,Yes,High,Medium,Male,No,Low,Yes,Yes,No,Yes,No
0.1625,0.35,High,Yes,Low,Low,Male,No,High,No,No,No,No,No
0.4,0.8,High,No,Low,Low,Female,No,Medium,No,Yes,No,No,No
0.625,0.8,None,Yes,Medium,Low,Female,Yes,Low,No,Yes,Yes,No,No
0.175,0.066667,Low,No,Low,Medium,Female,No,High,No,Yes,Yes,Yes,No
0.4,0.495962,None,Yes,Low,Low,Male,No,Medium,No,No,No,No,No
0.2125,0.933333,Medium,Yes,Low,Low,Male,Yes,High,No,Yes,Yes,Yes,No
0.375,0.066667,Low,Yes,High,Low,Female,No,Medium,No,Yes,Yes,Yes,No
0.025,0.066667,High,No,High,High,Male,No,Low,Yes,Yes,Yes,Yes,No
0.175,0.316667,Medium,Yes,Medium,Medium,Male,No,Medium,Yes,No,Yes,No,No
0.45,0.383333,Low,Yes,Medium,High,Female,No,Low,Yes,No,Yes,Yes,No
0.7,0.816667,Low,Yes,Low,Low,Male,No,High,No,No,No,Yes,No
0.175,0.483333,None,No,Low,Low,Female,No,Medium,No,Yes,No,Yes,No
0.65,0.383333,Medium,Yes,Medium,Low,Female,Yes,Low,No,No,Yes,Yes,No
0.2125,0.495962,None,Yes,High,High,Female,Yes,Medium,Yes,Yes,Yes,No,No
0.4,0.95,None,No,Medium,Low,Female,No,High,Yes,Yes,Yes,No,No
0.5375,0.583333,Low,Yes,Low,High,Male,Yes,Medium,No,No,Yes,No,No
0.4875,0.216667,Medium,Yes,Low,Medium,Female,No,High,No,Yes,Yes,Yes,No
0.3,0.416667,High,Yes,Medium,Low,Male,No,Medium,Yes,No,No,No,No
0.8,0.666667,High,No,High,High,Male,Yes,Low,No,No,No,No,No
0.2375,0.4,Low,No,High,High,Female,No,Low,Yes,No,No,No,No
0.925,0.616667,Low,No,High,Low,Female,No,High,No,No,No,Yes,No
0.4625,0.083333,Medium,Yes,Low,Medium,Female,Yes,Medium,Yes,Yes,No,No,No
0.9,0.25,High,Yes,Medium,Low,Male,No,High,No,No,No,Yes,No
0.3125,0.933333,Low,No,Medium,Medium,Male,No,Low,No,Yes,Yes,Yes,No
0.1875,0.266667,High,Yes,Medium,Low,Male,No,Medium,No,No,Yes,Yes,No
0.8875,0.15,None,Yes,Low,Medium,Female,No,High,No,Yes,No,No,No
0.9875,0.283333,Medium,Yes,High,Low,Male,No,Low,Yes,No,Yes,Yes,No
0.1125,0.566667,Medium,No,High,Low,Male,Yes,Low,No,Yes,Yes,No,No
0.2625,0.233333,High,No,Low,High,Male,Yes,Medium,No,Yes,Yes,Yes,No
0.3125,0.733333,Low,No,Low,Low,Male,Yes,High,Yes,Yes,No,Yes,No
0.65,0.466667,Medium,Yes,High,Low,Male,No,High,Yes,No,Yes,No,No
0.2,0.916667,Low,Yes,Low,Low,Male,No,High,Yes,Yes,Yes,No,No
0.1125,0.266667,High,No,Low,Medium,Male,No,Low,Yes,No,No,No,No
0.7,0.516667,None,Yes,Low,Low,Male,Yes,High,Yes,No,No,No,No
0.025,0.3,None,Yes,Medium,High,Male,No,High,No,No,No,Yes,No
0.75,0.316667,Medium,Yes,Low,Low,Male,Yes,High,Yes,Yes,Yes,Yes,No
0.175,0.016667,Medium,No,High,Low,Male,Yes,Low,Yes,Yes,Yes,No,No
0.2625,0.083333,Medium,Yes,Low,Medium,Male,Yes,High,No,No,Yes,Yes,No
0.75,0.183333,High,Yes,Medium,Medium,Female,Yes,Medium,Yes,No,No,Yes,No
0.3875,0.683333,Low,No,Low,Medium,Female,Yes,High,No,No,No,Yes,No
0.9625,0.916667,Medium,No,Medium,Low,Female,Yes,Medium,No,No,Yes,Yes,No
0.1,0.65,None,No,High,Medium,Female,No,Low,No,Yes,No,Yes,No
0.9,0.05,Low,Yes,Medium,Medium,Male,Yes,Medium,No,No,Yes,Yes,No
0.2125,0.466667,None,Yes,Medium,High,Female,No,Medium,No,Yes,No,Yes,No
0.8875,0.233333,Medium,Yes,Low,Low,Male,Yes,Low,No,No,No,No,No
0.4875,0.05,High,Yes,Medium,High,Female,No,Medium,No,No,Yes,No,No
0.65,0.633333,None,No,High,Medium,Male,No,Medium,Yes,Yes,Yes,Yes,No
0.175,0.683333,Low,No,Medium,High,Male,Yes,High,Yes,No,No,No,No
0.425,0.583333,None,No,High,Low,Male,No,Medium,No,No,No,No,No
0.85,0.333333,High,Yes,Low,Low,Male,Yes,Low,No,Yes,No,Yes,No
0.5875,0.7,Low,No,Medium,High,Female,Yes,Low,Yes,Yes,No,Yes,No
0.65,0.216667,High,No,Medium,High,Female,No,High,Yes,No,No,No,No
0.95,0.866667,Medium,Yes,High,Low,Female,Yes,High,Yes,No,No,Yes,No
0.7625,0.233333,None,No,Medium,Medium,Male,Yes,Low,No,Yes,No,No,No
0.3625,0.933333,Low,No,Medium,Medium,Female,No,High,Yes,No,Yes,No,No
0.125,0.783333,None,No,Medium,High,Female,Yes,Medium,No,No,Yes,Yes,No
0.975,0.05,Low,Yes,High,Low,Female,No,Medium,Yes,No,Yes,Yes,No
0.7875,0.816667,Medium,No,Medium,Low,Male,Yes,High,No,Yes,Yes,Yes,No
0.4375,0.833333,High,No,Low,Low,Male,No,High,Yes,No,Yes,No,No
0.625,0.25,Low,Yes,Medium,Medium,Female,Yes,Medium,No,Yes,No,Yes,No
0.1625,0.2,High,Yes,Low,Low,Female,No,Medium,No,No,No,No,No
0.85,0.383333,Medium,No,Medium,Medium,Female,Yes,Low,Yes,Yes,Yes,No,No
0.775,0.016667,None,No,Medium,Low,Male,No,Medium,Yes,Yes,Yes,No,No
0.5125,0.55,Medium,Yes,Medium,Medium,Female,No,Low,No,No,Yes,No,No
0.2375,0.516667,Medium,No,High,High,Male,Yes,High,No,No,Yes,No,No
0.15,0.35,Medium,Yes,Medium,High,Male,Yes,High,Yes,Yes,No,Yes,No
0.65,0.116667,None,No,High,High,Male,No,High,No,No,Yes,No,No
0.1875,0.233333,High,Yes,Medium,Low,Male,No,Medium,No,No,Yes,Yes,No
0.7,0.25,None,No,High,High,Female,Yes,Medium,Yes,Yes,No,No,No
0.9625,0.75,Medium,No,Medium,Medium,Male,No,Low,No,No,No,Yes,No
0.175,0.75,Medium,No,Medium,Medium,Female,Yes,Medium,Yes,Yes,No,Yes,No
0.4875,0.966667,Low,No,High,High,Female,No,Low,Yes,No,No,Yes,No
0.625,0.616667,None,Yes,Medium,High,Male,Yes,High,Yes,Yes,Yes,No,No
0.975,0.266667,Low,No,High,Medium,Male,Yes,High,No,No,Yes,No,No
0.075,0.916667,High,Yes,Low,Medium,Female,No,High,Yes,Yes,Yes,Yes,No
0.7375,0.716667,Low,No,Medium,Medium,Female,No,Low,No,No,Yes,Yes,No
0.4,0.183333,None,No,Medium,Low,Female,No,Low,Yes,No,No,Yes,No
0.975,0.35,Medium,Yes,Medium,High,Male,No,Medium,Yes,Yes,No,Yes,No
0.075,0.883333,High,Yes,High,Medium,Male,Yes,Low,Yes,Yes,No,No,No
0.0625,0.55,High,Yes,Medium,Low,Female,Yes,High,Yes,Yes,Yes,No,No
0.15,0.283333,None,Yes,Medium,Low,Male,Yes,High,No,Yes,Yes,Yes,No
0.15,0.166667,None,No,Medium,High,Female,Yes,High,Yes,No,No,No,No
0.8625,0.233333,None,Yes,Low,High,Female,No,Low,No,Yes,Yes,No,No
0.8125,1,High,Yes,Low,Medium,Male,No,Low,No,Yes,Yes,No,No
0.4375,0.866667,None,No,Low,Low,Male,No,High,No,Yes,No,No,No
0.975,0.666667,Medium,Yes,Medium,Medium,Female,Yes,High,Yes,No,Yes,No,No
0.5,0.9,Low,No,Low,Low,Female,Yes,Medium,No,No,Yes,Yes,No
0.925,0.366667,Medium,No,High,Low,Male,No,Medium,No,No,Yes,Yes,No
0.15,0.416667,Low,Yes,Low,Medium,Male,No,High,No,No,Yes,Yes,No
0.7125,0.333333,None,No,Low,Low,Male,Yes,Low,Yes,No,Yes,No,No
0.4125,0.966667,Low,No,Low,Medium,Female,No,Low,No,Yes,No,Yes,No
0.425,0.166667,None,Yes,Low,High,Male,Yes,Low,No,Yes,Yes,Yes,No
0.875,0.85,None,No,Low,High,Male,No,Medium,No,Yes,No,No,No
0.4125,0.066667,Low,Yes,High,Medium,Female,No,Medium,Yes,Yes,No,No,No
0.4625,0.216667,High,No,Low,Low,Male,No,High,No,No,No,No,No
0.0625,0.5,Medium,Yes,Medium,High,Female,Yes,Low,No,Yes,Yes,No,No
0.3125,0.566667,High,Yes,High,High,Male,Yes,Medium,No,Yes,Yes,Yes,No
0.2125,0.7,None,No,High,Medium,Male,No,Low,Yes,Yes,No,Yes,No
0.7875,0.8,None,Yes,High,Medium,Male,Yes,High,Yes,No,No,Yes,No
0.0375,0.283333,None,No,High,High,Female,Yes,High,Yes,No,No,No,No
0.4,0.9,Medium,Yes,High,Medium,Male,No,High,No,Yes,No,Yes,No
0.8125,0.2,Low,No,Low,Low,Male,No,Low,Yes,No,Yes,Yes,No
0.1875,0.9,High,No,Low,High,Female,No,Medium,No,No,No,Yes,No
0.0375,0.716667,High,Yes,High,Medium,Female,Yes,Low,Yes,Yes,No,Yes,No
0.725,0.366667,None,No,Low,Low,Female,No,Medium,No,No,Yes,Yes,No
0.1,0.1,Medium,No,High,High,Female,No,Low,No,Yes,Yes,No,No
0.325,0.333333,None,No,High,High,Male,No,Low,No,No,Yes,No,No
0.0625,0.9,Medium,No,High,High,Male,No,Medium,Yes,No,No,Yes,No
0.55,0.483333,Low,No,Medium,Medium,Female,No,Low,No,No,Yes,Yes,No
0.7875,0.65,None,No,Low,Low,Female,Yes,Medium,No,No,No,Yes,No
0.9,0.716667,High,No,Low,High,Female,Yes,Low,No,Yes,Yes,Yes,No
0.0125,0.616667,Medium,Yes,High,Low,Male,No,Medium,Yes,No,Yes,Yes,No
0.8875,0.183333,High,No,High,Low,Male,Yes,Medium,Yes,No,No,No,No
0.5,1,Medium,No,High,High,Female,No,High,No,No,Yes,Yes,No
0.8,0.466667,High,No,Low,High,Male,No,High,Yes,Yes,Yes,No,No
0.25,0.033333,None,No,High,High,Female,Yes,Medium,No,Yes,Yes,No,No
0.3375,0.583333,Low,No,Low,Medium,Female,Yes,High,Yes,Yes,Yes,No,No
0.175,0.633333,Medium,Yes,Medium,Low,Male,Yes,High,No,Yes,No,No,No
0.1125,0.85,None,No,Medium,Medium,Male,Yes,High,Yes,No,Yes,Yes,No
0.4625,0.283333,Medium,Yes,Medium,Low,Female,Yes,Low,Yes,Yes,No,Yes,No
0.55,0.7,High,No,Medium,High,Male,Yes,High,Yes,No,Yes,No,No
0.725,0.383333,Medium,Yes,Low,Low,Female,No,Medium,Yes,Yes,No,No,No
0.0625,0.2,None,No,Low,Low,Female,Yes,High,Yes,Yes,Yes,Yes,No
0.475,0.6,Medium,Yes,Low,Low,Female,Yes,Low,Yes,No,No,Yes,No
0.7125,0.183333,High,Yes,Medium,High,Male,No,Medium,No,Yes,No,Yes,No
0.175,0.85,High,Yes,Low,High,Female,Yes,Medium,No,No,Yes,No,No
0.225,0.716667,Low,Yes,Medium,Medium,Male,No,High,No,Yes,Yes,Yes,No
0.9375,0.083333,None,Yes,Medium,Medium,Female,Yes,Low,Yes,Yes,Yes,Yes,No
0.725,0.3,High,No,Medium,Medium,Female,Yes,Medium,No,Yes,Yes,No,No
0.925,0.6,Medium,Yes,Medium,High,Female,No,High,Yes,Yes,No,Yes,No
0.6375,0.616667,Medium,No,Medium,High,Female,No,High,Yes,No,Yes,Yes,No
0.3875,0.866667,High,Yes,High,High,Female,Yes,Medium,Yes,No,No,No,No
0.3625,0.15,None,Yes,High,Medium,Female,No,Low,No,No,No,No,No
0.8625,0.483333,None,No,Low,Low,Female,Yes,Medium,Yes,Yes,No,Yes,No
0.9,0.833333,Low,Yes,High,Low,Male,No,Medium,Yes,No,Yes,No,No
0,0.15,High,No,High,Medium,Male,No,High,No,No,Yes,No,No
0.95,0.233333,Medium,No,Medium,High,Female,Yes,High,Yes,No,No,Yes,No
0.45,0.45,None,No,Low,Low,Male,Yes,High,Yes,Yes,Yes,No,No
0.6875,0.5,High,Yes,Medium,Medium,Female,Yes,High,No,No,Yes,Yes,No
0.575,0.233333,None,No,High,Low,Male,No,Low,Yes,Yes,Yes,No,No
0.9125,0.2,None,Yes,Medium,High,Male,No,Low,Yes,No,No,Yes,No
0.6375,0.9,High,No,High,High,Male,No,Medium,No,Yes,Yes,No,No
0.2,0.383333,Low,No,Medium,High,Male,No,Low,Yes,Yes,Yes,No,No
0.35,0.683333,Low,No,High,Medium,Female,No,Medium,Yes,Yes,No,No,No
0.0125,0.183333,Low,Yes,High,Low,Female,No,High,Yes,No,Yes,Yes,No
0.175,0.85,None,No,Medium,Low,Male,Yes,High,No,No,No,No,No
0,0.266667,Low,No,Medium,Low,Female,Yes,High,No,No,No,Yes,No
0.15,0.666667,Low,Yes,Low,Low,Male,No,Medium,No,Yes,No,Yes,No
0.2875,0.716667,Low,No,Medium,Medium,Male,No,Medium,No,Yes,Yes,Yes,No
0.8375,0.983333,High,Yes,Low,High,Male,No,High,No,Yes,Yes,Yes,No
0.45,0.75,Medium,Yes,High,Low,Female,Yes,Medium,No,Yes,Yes,No,No
0.675,0.75,Low,Yes,Low,Medium,Male,No,Low,Yes,Yes,No,No,No
0.3,0.75,Medium,No,High,Medium,Male,Yes,Low,Yes,No,No,No,No
0.175,0.316667,Low,Yes,Low,Medium,Female,Yes,Medium,Yes,No,Yes,No,No
0.7,0.533333,Medium,No,High,High,Male,No,Low,Yes,No,Yes,Yes,No
1,0.95,Medium,No,Low,Low,Male,Yes,Low,Yes,No,Yes,No,No
0.5375,0.716667,None,No,Low,Low,Female,No,Low,No,No,No,No,No
0.7875,0.916667,Low,Yes,Medium,Low,Female,No,Medium,No,Yes,Yes,No,No
0.1125,0.15,Medium,Yes,Low,Medium,Male,No,Low,No,No,No,No,No
0.275,0.216667,High,No,Low,Medium,Female,Yes,Medium,No,Yes,No,No,No
0.65,0.166667,Medium,Yes,High,Low,Male,Yes,Medium,Yes,Yes,Yes,No,No
0.3125,0.85,High,No,High,Medium,Female,Yes,High,Yes,Yes,Yes,No,No
0.6375,0.233333,Medium,No,Low,Medium,Female,No,Low,Yes,No,No,Yes,No
0.675,0.233333,Medium,No,Low,Medium,Female,No,High,Yes,Yes,No,Yes,No
0.525,0.633333,High,Yes,High,Medium,Male,No,Low,Yes,Yes,Yes,Yes,No
0.7125,0.833333,Medium,No,Medium,High,Female,No,High,No,No,No,No,No
0.0125,0.7,None,No,Medium,Low,Male,No,High,Yes,Yes,No,Yes,No
0.1875,0.75,Low,Yes,Low,High,Female,Yes,High,No,Yes,Yes,No,No
0.8125,0.133333,Medium,Yes,Medium,High,Male,Yes,Low,Yes,Yes,No,Yes,No
0.5375,0.416667,Medium,Yes,High,Low,Male,No,High,Yes,Yes,No,No,No
0.3875,0.116667,Low,Yes,Low,High,Male,Yes,Low,No,No,Yes,No,No
0.725,1,Low,Yes,High,High,Female,Yes,Medium,Yes,No,Yes,Yes,No
0.025,0.083333,None,Yes,High,Low,Male,Yes,Low,No,No,Yes,Yes,No
0.525,0.8,High,No,High,Medium,Female,No,Medium,No,Yes,Yes,Yes,No
0.3125,0.833333,None,Yes,Medium,Low,Male,Yes,Low,No,No,Yes,Yes,No
0.4375,0.316667,High,No,Medium,High,Male,No,Low,No,Yes,No,No,No
0.375,0.933333,None,No,Low,Low,Female,No,High,Yes,Yes,Yes,No,No
0.775,0.55,Medium,Yes,Medium,High,Male,Yes,Medium,No,No,No,Yes,No
0.25,0.333333,High,No,High,High,Male,Yes,High,Yes,Yes,No,Yes,No
0.5125,0.95,High,Yes,Low,High,Female,Yes,Low,Yes,Yes,No,Yes,No
0.8375,0.466667,None,No,Low,Low,Male,Yes,High,Yes,Yes,Yes,No,No
0.1125,0.316667,High,Yes,Low,High,Male,Yes,Medium,No,Yes,Yes,No,No
0.1375,0.733333,Low,Yes,Medium,Low,Male,No,Medium,No,No,Yes,Yes,No
0.8,0.633333,None,No,High,Medium,Female,Yes,Low,Yes,No,Yes,Yes,No
0.7125,0,High,No,Medium,High,Female,No,Medium,No,Yes,No,No,No
0.55,0.966667,Low,No,Low,Medium,Female,Yes,Medium,No,No,Yes,Yes,No
0.75,0.416667,Medium,No,High,Medium,Male,Yes,Medium,Yes,Yes,Yes,Yes,No
0.8625,0.75,None,No,Low,Medium,Male,Yes,Low,No,No,Yes,Yes,No
0.5625,0.65,Medium,No,High,High,Female,No,Medium,Yes,No,Yes,Yes,No
0.0125,0,Medium,Yes,High,High,Male,No,Medium,No,No,Yes,Yes,No
0.95,0.066667,Medium,Yes,Medium,High,Female,Yes,Low,No,No,Yes,No,No
0.9875,0.55,Low,No,High,Medium,Male,Yes,High,No,Yes,Yes,No,No
0.2,0.3,High,No,Low,Medium,Male,No,Medium,No,No,No,No,No
0.5,0.016667,None,No,Low,Low,Female,Yes,Medium,No,No,Yes,No,No
0.4,0.466667,Low,No,Low,Medium,Female,No,Low,Yes,Yes,No,No,No
0.4625,0.783333,High,No,Low,Low,Male,Yes,High,Yes,No,Yes,Yes,No
0.8125,0.75,Low,No,Low,Medium,Female,Yes,High,Yes,Yes,No,No,No
0.9625,0.216667,Medium,Yes,High,Medium,Male,No,Medium,No,No,Yes,Yes,No
0.1125,0.55,Low,Yes,High,Medium,Male,No,High,Yes,Yes,Yes,No,No
0.3375,0.4,High,No,Medium,Medium,Female,Yes,High,No,Yes,No,Yes,No
0.6125,0.6,High,Yes,Low,Low,Male,Yes,Medium,Yes,Yes,No,No,No
0.4625,0.966667,High,Yes,Medium,Medium,Female,No,Medium,No,Yes,No,No,No
0.3875,0.95,Medium,Yes,High,Medium,Female,No,High,Yes,Yes,No,No,No
0.375,0.866667,None,No,Low,High,Male,No,High,No,Yes,No,No,No
0.9875,0.816667,Medium,Yes,Low,Medium,Female,Yes,High,No,No,No,No,No
0.6625,0.466667,High,No,Medium,High,Female,Yes,Medium,No,Yes,Yes,No,No
0.9625,0.25,Low,Yes,High,Low,Female,Yes,High,Yes,No,No,No,No
0.175,0.75,Medium,No,Medium,Medium,Female,Yes,Medium,Yes,Yes,No,Yes,No
0.4625,0.033333,High,No,High,Medium,Female,Yes,Medium,No,No,Yes,No,No
0.1125,0.966667,Low,No,Medium,High,Male,No,Low,Yes,No,Yes,No,No
0.975,0,None,Yes,Medium,Medium,Male,Yes,Low,No,No,Yes,Yes,No
0.375,0.116667,Medium,Yes,Medium,Low,Female,Yes,Medium,No,Yes,No,No,No
0.8,0.633333,None,No,High,Medium,Female,Yes,Low,Yes,No,Yes,Yes,No
0.6375,0.466667,Medium,Yes,Low,High,Female,No,Low,No,Yes,No,Yes,No
0.6375,0.133333,Medium,Yes,High,Medium,Female,No,Low,No,Yes,No,No,No
0.9,0.05,High,No,High,Medium,Female,Yes,Medium,Yes,No,No,No,No
0.0625,0.816667,Low,No,Medium,High,Female,Yes,High,No,No,Yes,No,No
0.5125,0.95,Medium,Yes,High,Medium,Male,Yes,Low,Yes,No,Yes,No,No
0.125,0.666667,High,No,Medium,Medium,Male,No,High,Yes,No,Yes,Yes,No
0.525,0.95,None,No,High,High,Female,Yes,Low,No,No,Yes,Yes,No
0.6125,0.016667,Low,No,High,High,Male,No,Low,Yes,No,Yes,No,No
0.95,0.5,Low,Yes,High,Medium,Female,Yes,High,No,Yes,No,Yes,No
0.025,1,Low,No,Low,Low,Male,No,Medium,Yes,No,No,Yes,No
0.7875,0.55,Medium,Yes,Medium,High,Male,Yes,Low,No,No,No,No,No
0.3625,0.333333,Low,No,High,Low,Female,Yes,Medium,Yes,No,No,Yes,No
1,0.2,Medium,Yes,High,Low,Male,Yes,High,Yes,Yes,Yes,No,No
0.7,0.033333,Medium,Yes,Low,Medium,Female,Yes,High,Yes,No,No,No,No
0.675,0.4,None,Yes,Medium,Low,Male,Yes,Medium,Yes,No,Yes,No,No
0.8125,0.266667,High,Yes,Low,Low,Female,No,Medium,Yes,No,No,No,No
0.5875,0.85,High,Yes,Low,Low,Female,No,High,Yes,No,No,Yes,No
0.8125,0.25,Medium,No,Low,Low,Male,Yes,High,No,No,No,Yes,No
1,0.983333,None,No,High,High,Female,Yes,High,Yes,No,No,Yes,No
0.375,0.75,Medium,No,High,High,Female,Yes,Medium,Yes,No,No,Yes,No
0.8625,0.366667,Low,No,Medium,Low,Male,No,Low,Yes,No,No,Yes,No
0.1125,0.966667,Low,Yes,High,High,Female,No,Low,Yes,No,Yes,Yes,No
0.3125,0.283333,Low,Yes,Low,Low,Male,No,Low,Yes,No,No,No,No
0.375,0.95,Low,Yes,High,High,Male,Yes,High,No,No,Yes,Yes,No
0.6,0.216667,Medium,No,Medium,Low,Male,Yes,High,Yes,Yes,Yes,No,No
0.15,0.1,Medium,No,Low,High,Male,Yes,High,No,Yes,Yes,No,No
0.4125,0.466667,Medium,No,Medium,High,Female,Yes,High,Yes,No,No,Yes,No
0.3125,0.333333,Medium,No,Medium,High,Male,No,Low,Yes,Yes,Yes,No,No
0.875,0.033333,Medium,No,Low,Medium,Male,No,Medium,Yes,No,Yes,Yes,No
0.775,0.333333,None,No,High,Medium,Female,No,Medium,Yes,No,No,Yes,No
0.0125,0.633333,Medium,Yes,High,High,Male,Yes,Medium,Yes,Yes,Yes,Yes,No
0.25,0.7,High,Yes,Medium,High,Male,No,Medium,No,Yes,No,No,No
0.7375,0.233333,None,No,Medium,Medium,Female,Yes,High,No,No,No,Yes,No
0.2375,0.8,High,Yes,Medium,Low,Male,Yes,High,Yes,No,No,Yes,No
0.4375,0.9,Medium,No,Medium,Medium,Male,No,High,Yes,No,Yes,Yes,No
0.7625,0.616667,Medium,No,High,High,Male,No,High,No,Yes,No,Yes,No
0.1,0.15,Low,No,Medium,Low,Female,Yes,Medium,Yes,Yes,No,Yes,No
0.4875,0.783333,Medium,Yes,Low,High,Female,Yes,Medium,Yes,Yes,Yes,No,No
0.1,0.866667,High,No,Low,Low,Female,Yes,High,No,No,No,No,No
0.3625,0.916667,Medium,Yes,Low,Medium,Male,No,Medium,No,No,No,Yes,No
0.7625,0.25,Medium,No,Medium,Medium,Male,No,Medium,Yes,Yes,Yes,No,No
0.8625,0.85,Low,Yes,Medium,Low,Female,No,High,No,No,No,No,No
0.4125,0.266667,Medium,No,Low,Medium,Male,Yes,High,No,No,No,Yes,No
0.1,0.183333,Low,Yes,Medium,High,Female,Yes,Low,No,No,Yes,Yes,No
0.9125,0.616667,High,Yes,Medium,Medium,Female,No,Low,Yes,Yes,Yes,Yes,No
0.2875,1,Medium,No,High,Low,Male,Yes,Medium,Yes,Yes,No,Yes,No
1,0.7,Medium,Yes,Low,Low,Female,No,Medium,No,Yes,Yes,Yes,No
0.8125,0.433333,High,No,Low,Medium,Male,No,Low,Yes,Yes,No,No,No
0.975,0.816667,Low,Yes,High,High,Female,Yes,Low,No,No,No,No,No
0.05,0.583333,None,Yes,High,Medium,Male,Yes,Medium,Yes,Yes,Yes,Yes,No
0.6375,0.85,Low,No,Low,Low,Female,No,Low,No,No,Yes,No,No
0.9125,0.75,High,No,High,Medium,Female,No,Low,Yes,No,Yes,Yes,No
0.775,0.45,Low,No,Low,Low,Male,No,Low,Yes,No,No,Yes,No
0.8,0.016667,Low,No,High,High,Male,No,High,No,Yes,Yes,No,No
0.8,0.233333,Medium,Yes,Low,Medium,Male,No,Medium,Yes,Yes,Yes,Yes,No
0,0.15,None,Yes,Low,Medium,Male,Yes,Low,Yes,Yes,No,Yes,No
0.675,0.916667,High,Yes,Low,Medium,Male,Yes,Low,Yes,Yes,Yes,No,No
0.3,0.716667,Medium,No,Medium,High,Male,No,Medium,Yes,No,No,Yes,No
0.075,0.55,None,No,High,Low,Female,Yes,High,Yes,No,Yes,No,No
0.125,0.35,None,No,High,Low,Male,No,Medium,No,Yes,Yes,No,No
0.6125,0.3,None,No,Low,Low,Female,Yes,Medium,No,No,Yes,Yes,No
0.4875,0.8,Medium,No,Medium,High,Male,No,Low,Yes,No,No,Yes,No
0.0375,0.75,None,Yes,Low,High,Male,No,High,Yes,No,Yes,No,No
0.1125,0.05,Medium,Yes,High,Medium,Male,No,Low,No,Yes,Yes,No,No
0.75,0.583333,Low,No,Low,Medium,Male,Yes,Medium,No,Yes,Yes,Yes,No
0.0125,0.466667,High,No,Medium,High,Male,Yes,Low,Yes,No,Yes,No,No
0.4,0.316667,High,No,High,Medium,Male,Yes,Low,No,Yes,No,No,No
0.5,0.266667,High,Yes,Low,High,Male,No,Low,No,Yes,No,Yes,No
0.5,0,None,Yes,High,Low,Male,Yes,Medium,Yes,No,Yes,No,No
0.0375,0.166667,Low,No,Medium,Low,Male,No,Low,Yes,Yes,Yes,No,No
0.7875,0.95,Low,Yes,High,Low,Female,Yes,Low,Yes,Yes,No,No,No
0.2875,0.25,High,Yes,Low,High,Female,Yes,Low,No,Yes,Yes,Yes,No
0.55,0.216667,Medium,Yes,Medium,Medium,Male,Yes,Low,No,Yes,No,No,No
0.8375,0.966667,Low,Yes,Medium,High,Female,Yes,Low,No,No,Yes,Yes,No
0.2625,0.083333,Medium,Yes,Low,Medium,Male,Yes,High,No,No,Yes,Yes,No
0.4875,0.683333,None,Yes,Medium,High,Male,No,Medium,Yes,No,No,No,No
0.725,0.133333,Medium,No,Medium,High,Female,Yes,High,Yes,No,Yes,Yes,No
0.8125,0.5,High,No,High,Medium,Female,No,Low,No,No,Yes,No,No
0.4625,0.266667,None,Yes,Low,High,Male,No,Medium,Yes,No,Yes,No,No
0.9875,0.466667,Medium,No,High,Medium,Female,Yes,High,Yes,No,No,Yes,No
0.7375,0.583333,None,No,High,Medium,Male,No,Medium,No,Yes,No,Yes,No
0.025,0.7,Medium,Yes,High,Low,Female,Yes,High,Yes,Yes,No,Yes,No
0.725,0.366667,None,No,Medium,Low,Male,No,Low,No,No,Yes,Yes,No
0.9875,0.233333,Low,Yes,High,Medium,Female,No,Low,Yes,Yes,No,No,No
0.8875,0.366667,Medium,No,High,Low,Female,No,High,Yes,No,No,No,No
0.4375,0.866667,None,No,Low,Low,Male,No,High,No,Yes,No,No,No
0.6625,0.016667,None,No,High,Medium,Female,Yes,High,Yes,Yes,No,Yes,No
0.7625,0.616667,Low,No,High,Low,Male,No,Medium,Yes,No,No,No,No
0.05,0.466667,High,Yes,Medium,High,Female,No,High,No,No,No,No,No
0.9875,0.566667,Medium,Yes,Low,Low,Female,Yes,Low,Yes,No,No,No,No
0.65,0.766667,Low,Yes,High,High,Female,Yes,High,Yes,No,No,Yes,No
0.2125,0.55,Medium,Yes,High,Low,Male,No,High,Yes,Yes,No,Yes,No
0.4625,0.566667,Medium,Yes,Medium,High,Male,Yes,Low,No,No,No,No,No
0.2375,0.266667,High,No,Medium,Medium,Female,Yes,Low,No,No,Yes,Yes,No
0.7625,1,None,No,Medium,Medium,Female,No,Medium,Yes,No,No,No,No
0.625,0.2,Low,Yes,Low,High,Female,Yes,Low,No,Yes,No,Yes,No
0.6,0.4,High,Yes,High,Medium,Male,Yes,High,No,No,No,Yes,No
0.225,0.8,Low,No,High,High,Male,No,High,No,Yes,Yes,Yes,No
0.2375,0.516667,Medium,No,High,High,Male,Yes,High,No,No,Yes,No,No
0.2,0.733333,Low,No,Low,Medium,Female,No,Medium,Yes,Yes,No,No,No
0.4,0.6,Low,No,High,High,Female,No,Medium,Yes,Yes,No,No,No
0.4625,0.066667,None,No,Low,Medium,Male,Yes,Low,No,No,Yes,No,No
0.45,0.616667,None,No,Medium,Medium,Male,No,High,Yes,Yes,Yes,No,No
0.875,0.833333,None,Yes,Low,Low,Female,Yes,High,Yes,No,No,No,No
1,0.516667,High,No,High,Low,Male,Yes,Low,No,Yes,No,No,No
0.3125,0.05,Low,Yes,Low,Low,Female,No,Low,No,No,No,No,No
0.2625,0.6,High,Yes,Low,High,Female,No,High,Yes,No,Yes,No,No
0.475,0.283333,High,Yes,High,Medium,Female,No,Low,Yes,Yes,Yes,Yes,No
0.5125,0.15,Low,Yes,Medium,Medium,Female,No,Low,Yes,Yes,Yes,No,No
0.5875,0.55,High,No,High,Low,Female,No,High,No,No,No,Yes,No
0.95,0.733333,Medium,No,High,Medium,Male,No,High,Yes,No,Yes,No,No
0.325,0.833333,High,No,Low,Low,Male,No,High,No,Yes,No,Yes,No
0.575,0.133333,Medium,No,Low,Medium,Male,Yes,Low,No,No,Yes,No,No
0.2,1,Medium,Yes,High,Medium,Female,Yes,Low,Yes,Yes,Yes,Yes,No
0.55,0.816667,High,Yes,Medium,High,Male,Yes,Medium,No,No,Yes,No,No
0.8125,0.266667,High,Yes,Medium,Low,Female,Yes,High,No,Yes,No,No,No
0.1,0.416667,None,Yes,Medium,Medium,Female,Yes,High,Yes,No,No,Yes,No
0.6125,0.816667,Medium,Yes,High,High,Male,Yes,Low,No,Yes,Yes,No,No
0.9875,0.5,None,No,High,Low,Male,No,Medium,Yes,No,No,Yes,No
0.0125,0.116667,Low,Yes,Medium,High,Female,Yes,High,No,No,Yes,Yes,No
0.6625,0.4,High,No,Low,Medium,Female,Yes,Low,No,Yes,No,Yes,No
0.0625,0.616667,Medium,Yes,Medium,Medium,Male,No,High,Yes,Yes,No,No,No
0.8,0.483333,Medium,No,High,Low,Female,Yes,Medium,Yes,Yes,No,No,No
0.5375,0.45,High,No,High,Low,Female,Yes,Low,Yes,No,No,Yes,No
0.2,1,Medium,Yes,High,Medium,Female,Yes,Low,Yes,Yes,Yes,Yes,No
0.9625,0.2,None,Yes,High,Medium,Male,No,High,Yes,No,No,No,No
0.45,0.416667,Medium,Yes,Medium,High,Female,Yes,High,No,No,Yes,Yes,No
0.8125,0.483333,Low,Yes,Medium,Low,Female,Yes,Medium,Yes,Yes,No,Yes,No
0.6125,0.5,Medium,No,Low,Medium,Female,Yes,Low,No,No,No,No,No
0.975,0.166667,None,No,Low,Medium,Male,Yes,Low,Yes,Yes,No,No,No
0.475,0.883333,None,No,Low,High,Female,No,Medium,Yes,Yes,Yes,Yes,No
0.75,0.283333,Low,No,Low,Medium,Male,No,Low,No,Yes,No,No,No
0.5625,0.316667,High,No,Medium,High,Male,No,Medium,Yes,No,Yes,No,No
0.0375,0.683333,High,No,Medium,Medium,Male,No,Low,Yes,No,No,No,No
0.5625,0.233333,None,Yes,Low,Medium,Male,Yes,Medium,No,No,Yes,Yes,No
0.35,0.883333,High,No,Medium,High,Male,Yes,High,Yes,No,Yes,No,No
0.0625,0.766667,Medium,Yes,High,Low,Female,Yes,Medium,Yes,Yes,Yes,Yes,No
0.6625,0.35,Medium,No,Low,High,Male,No,Low,Yes,Yes,No,No,No
0.8625,0.05,High,No,High,Low,Female,Yes,Medium,No,Yes,Yes,Yes,No
0.6875,0.833333,Medium,Yes,High,High,Female,Yes,Medium,Yes,No,Yes,No,No
0.3625,0.4,High,Yes,Low,Medium,Female,Yes,Medium,No,Yes,No,Yes,No
0.325,0.666667,None,Yes,High,High,Female,No,Low,Yes,Yes,Yes,No,No
0.2,0.916667,Low,No,Low,Low,Male,No,High,Yes,No,No,No,No
0.2125,0.933333,Medium,Yes,Low,Low,Male,Yes,High,No,Yes,Yes,Yes,No
0.175,0.766667,Low,No,Medium,High,Female,No,Medium,No,Yes,No,No,No
0.35,0.966667,None,No,High,High,Female,Yes,High,Yes,No,No,No,No
0.85,0.65,Medium,Yes,Medium,Medium,Female,No,Medium,Yes,Yes,No,Yes,No
0.725,0.166667,High,No,High,Medium,Male,No,Medium,Yes,Yes,No,No,No
0.0375,0.983333,None,No,High,Low,Male,No,Low,No,Yes,Yes,No,No
0.9,0.616667,Low,No,Low,High,Female,No,High,No,Yes,Yes,No,No
0.65,0.783333,None,No,High,Medium,Male,Yes,High,Yes,Yes,Yes,No,No
0.2625,0.566667,High,Yes,Medium,Low,Female,No,Medium,Yes,No,No,Yes,No
0.4125,0.316667,Medium,No,High,Low,Female,No,High,Yes,Yes,Yes,No,No
0.3875,0.133333,None,Yes,High,High,Female,Yes,Medium,No,No,No,Yes,No
0.5875,0.466667,High,Yes,High,High,Male,Yes,Medium,Yes,No,No,No,No
0.9125,0.033333,Low,No,Medium,High,Male,Yes,Low,Yes,Yes,Yes,No,No
0.15,0.766667,None,No,Medium,High,Female,No,Medium,Yes,No,No,No,No
0.9125,0.583333,High,No,Low,Low,Male,No,High,Yes,No,No,Yes,No
0.2875,0.916667,Low,Yes,High,Low,Male,No,Medium,No,No,No,Yes,No
0.55,0.366667,High,Yes,Medium,Low,Female,No,Low,No,Yes,Yes,No,No
0.4875,0.25,Low,No,Medium,High,Male,Yes,High,No,No,No,No,No
0.725,0.933333,Low,No,Medium,High,Male,No,Medium,Yes,Yes,No,No,No
0.675,0.916667,High,Yes,Low,Medium,Male,Yes,Low,Yes,Yes,Yes,No,No
0.7625,0.616667,Medium,No,High,High,Male,No,High,No,Yes,No,Yes,No
0.15,0.533333,Low,No,High,Medium,Female,No,High,No,Yes,No,Yes,No
0.025,0.283333,Medium,Yes,High,Medium,Female,No,Low,No,Yes,No,Yes,No
0.925,0.466667,Medium,No,High,Low,Female,Yes,High,No,Yes,Yes,No,No
0.7625,0.55,None,Yes,Low,High,Male,Yes,High,Yes,No,No,Yes,No
0.525,0.7,Medium,Yes,Low,Medium,Female,Yes,Low,No,Yes,No,No,No
0.0625,0.6,Medium,No,Low,Low,Male,Yes,Medium,Yes,No,Yes,No,No
0.8625,0.566667,None,Yes,Low,High,Female,No,Medium,Yes,No,No,Yes,No
0.1625,0.833333,None,No,Medium,Low,Male,No,High,Yes,No,Yes,No,No
0.025,0.433333,None,No,Medium,Low,Female,No,Medium,Yes,No,No,No,No
0.05,0.25,Medium,Yes,Low,Medium,Female,Yes,Medium,Yes,No,Yes,No,No
0.5,0.1,None,No,Medium,Low,Female,No,Medium,Yes,No,Yes,Yes,No
0.2375,0.8,High,Yes,Medium,Low,Male,Yes,High,Yes,No,No,Yes,No
0.65,0.133333,Low,Yes,High,High,Male,No,Low,No,Yes,No,No,No
0.925,0.366667,High,Yes,Medium,Low,Male,No,High,Yes,No,Yes,No,No
0.4375,0.883333,High,Yes,Medium,High,Male,No,High,No,No,Yes,No,No
0.75,0.3,High,No,Low,High,Female,No,High,Yes,Yes,Yes,Yes,No
0.05,0.516667,None,Yes,Medium,Medium,Female,No,Medium,No,Yes,Yes,Yes,No
0.4375,0.833333,High,No,High,Medium,Male,No,High,Yes,Yes,Yes,Yes,No
0.6375,0.5,High,Yes,Medium,High,Male,Yes,Low,No,No,Yes,No,No
0.3,0.666667,None,Yes,Medium,Medium,Female,Yes,Medium,No,Yes,No,Yes,No
0.8125,0.116667,High,No,High,High,Female,No,Medium,No,Yes,Yes,Yes,No
0.0875,0.266667,Medium,No,Low,High,Male,Yes,High,Yes,No,No,Yes,No
0.8,0.866667,None,Yes,Low,High,Female,No,High,Yes,Yes,Yes,No,No
0.9125,0.2,Low,Yes,Medium,Low,Male,Yes,Medium,No,Yes,Yes,Yes,No
0.55,0.866667,Low,Yes,Medium,High,Male,Yes,Low,Yes,No,Yes,No,No
0.7,0.666667,None,No,Low,Low,Male,Yes,High,No,Yes,Yes,No,No
0.95,0.383333,None,Yes,Medium,High,Male,Yes,High,Yes,No,Yes,Yes,No
0.6125,0.833333,High,No,Medium,High,Male,Yes,High,Yes,No,No,Yes,No
0.7625,0.033333,Medium,No,High,High,Female,No,High,No,Yes,No,Yes,No
0.525,0.683333,Low,No,Low,Medium,Male,Yes,Medium,No,No,No,Yes,No
0.7875,0.816667,High,No,Low,High,Male,Yes,Medium,Yes,Yes,Yes,Yes,No
0.1,0.35,High,Yes,Medium,Low,Male,No,Low,No,Yes,No,Yes,No
0.9,0.1,High,No,Low,High,Male,No,Medium,Yes,No,Yes,Yes,No
0.1375,0.3,High,No,High,Medium,Female,Yes,Low,Yes,Yes,Yes,No,No
0.9375,0.816667,None,No,Medium,Medium,Male,Yes,High,No,No,Yes,No,No
0.4625,0.566667,Medium,Yes,Medium,High,Male,Yes,Low,No,No,No,No,No
0.975,0.616667,Low,No,Medium,Low,Female,Yes,Medium,Yes,No,No,No,No
0.7,0.116667,None,No,High,High,Female,No,Medium,No,Yes,No,Yes,No
0.425,0.3,Medium,No,High,High,Female,No,Low,No,Yes,Yes,Yes,No
0.3,0.016667,None,No,High,High,Male,No,High,No,Yes,No,Yes,No
0.8375,0.85,Medium,No,Medium,High,Male,No,High,No,No,Yes,Yes,No
0.925,0.75,Medium,Yes,High,High,Female,No,High,Yes,No,Yes,No,No
0.7625,0.266667,None,Yes,Low,High,Female,No,Low,No,Yes,Yes,No,No
0.6,0.95,Medium,No,Medium,High,Female,No,Medium,No,No,Yes,Yes,No
0.0375,0.666667,Medium,No,High,Low,Female,Yes,Low,Yes,No,Yes,No,No
0.2625,0,None,No,Low,Medium,Female,No,High,Yes,No,No,Yes,No
0.8125,0.45,Medium,Yes,Medium,High,Male,Yes,High,No,No,No,No,No
0.125,0.966667,Medium,Yes,Low,Medium,Male,Yes,High,No,Yes,No,Yes,No
0,0.033333,None,No,Medium,Medium,Female,No,Low,Yes,No,Yes,No,No
0.9625,0.383333,Low,No,Low,High,Male,Yes,Medium,No,Yes,Yes,No,No
0.4875,0.716667,Low,Yes,Medium,High,Male,No,Medium,No,No,No,No,No
0.65,0.95,None,Yes,Medium,High,Male,Yes,Low,Yes,Yes,Yes,No,No
0.25,0.533333,Low,Yes,High,Low,Male,No,Low,No,No,Yes,No,No
0.575,0.516667,High,Yes,Medium,Low,Female,No,Medium,Yes,No,No,No,No
0.6375,0.85,Medium,Yes,Medium,Medium,Female,No,High,No,Yes,No,Yes,No
0.95,0.6,High,Yes,Low,Low,Male,Yes,Medium,Yes,Yes,No,Yes,No
0.375,0.75,High,No,Medium,Low,Male,No,Low,No,No,Yes,Yes,No
0.575,0.95,Low,No,Medium,Medium,Male,Yes,High,No,Yes,Yes,Yes,No
0.275,0.816667,High,No,Medium,Low,Female,Yes,High,Yes,Yes,Yes,Yes,No
0.525,0.766667,Medium,No,High,Medium,Male,No,Medium,No,No,No,No,No
0.05,0.583333,None,Yes,High,Medium,Male,Yes,Medium,Yes,Yes,Yes,Yes,No
0.5625,0.283333,Medium,No,Low,High,Male,No,Medium,No,No,No,Yes,No
0.25,0.633333,Low,No,Medium,Medium,Male,No,High,Yes,Yes,Yes,Yes,No
0.275,0.883333,Medium,Yes,Low,Medium,Female,Yes,Low,No,No,No,Yes,No
0.2625,0.883333,High,No,High,Medium,Male,No,High,No,Yes,Yes,Yes,No
0.6375,0.4,None,Yes,Medium,Low,Female,No,High,Yes,Yes,No,Yes,No
0.6625,0.783333,High,No,Low,Low,Female,No,High,Yes,No,Yes,Yes,No
0.9875,0.616667,None,No,High,High,Female,No,High,Yes,No,Yes,No,No
0.675,0.083333,Medium,Yes,High,Low,Male,No,High,Yes,No,No,Yes,No
0.0125,0.2,None,No,Low,High,Female,No,Medium,No,Yes,Yes,No,No
0.2625,0.2,Medium,Yes,Low,High,Male,Yes,Low,Yes,Yes,Yes,Yes,No
0.8875,0.683333,High,Yes,Medium,Medium,Male,Yes,High,Yes,Yes,Yes,No,No
0.45,0.65,None,Yes,Low,High,Male,Yes,High,No,No,No,Yes,No
0.75,0.816667,Medium,Yes,High,High,Male,No,Low,Yes,Yes,No,No,No
0.3125,0.333333,Medium,No,Medium,High,Male,No,Low,Yes,Yes,Yes,No,No
0.0125,0.083333,Medium,No,Medium,Low,Female,Yes,Low,Yes,Yes,Yes,Yes,No
0.325,0.833333,High,No,Low,Low,Male,No,High,No,Yes,No,Yes,No
0.0125,0.183333,Low,Yes,High,Low,Female,No,High,Yes,No,Yes,Yes,No
0.8375,0.433333,Medium,No,Medium,High,Female,No,Low,No,Yes,Yes,No,No
0.5125,0.55,None,No,High,High,Male,Yes,High,No,No,No,Yes,No
0.9375,0.816667,None,No,Medium,Medium,Male,Yes,High,No,No,Yes,No,No
0.025,0.916667,High,No,High,Medium,Female,No,Medium,Yes,Yes,No,No,No
0.7,0.983333,None,Yes,High,Medium,Male,No,High,No,No,Yes,No,No
0.775,0.7,Low,No,High,Medium,Male,Yes,Medium,No,Yes,No,Yes,No
1,0.916667,Low,Yes,High,Low,Male,Yes,High,Yes,No,Yes,No,No
0.2125,0.4,Medium,Yes,Low,High,Male,No,Medium,Yes,No,No,No,No
0.4875,0.733333,None,No,Medium,Low,Female,Yes,Low,No,No,No,Yes,No
0.3625,0.333333,Low,No,High,Low,Female,Yes,Medium,Yes,No,No,Yes,No
0.9875,0.966667,High,Yes,Low,High,Female,No,Medium,No,Yes,No,Yes,No
0.975,0.816667,None,No,High,High,Male,Yes,Low,Yes,No,Yes,Yes,No
0.3625,0.166667,High,Yes,High,High,Female,No,Low,No,Yes,Yes,Yes,No
0.1375,0.433333,Medium,No,Low,Medium,Female,No,Medium,No,Yes,No,Yes,No
0.55,0.4,Medium,Yes,Medium,High,Male,Yes,High,No,No,No,No,No
0.1375,0.766667,High,Yes,High,High,Male,Yes,Medium,Yes,No,No,Yes,No
0,0.183333,High,No,Medium,High,Male,Yes,Medium,Yes,Yes,No,Yes,No
0.5,0.083333,Low,Yes,High,Low,Female,No,Low,Yes,No,No,Yes,No
0.5375,0.816667,Low,Yes,High,Medium,Female,Yes,Low,Yes,Yes,No,No,No
1,0.616667,Low,No,Medium,Medium,Female,Yes,Low,Yes,Yes,No,No,No
0.7625,0.716667,High,No,Medium,Low,Female,Yes,Medium,No,No,Yes,Yes,No
0.9875,0.266667,Low,Yes,Medium,Low,Female,No,High,No,No,Yes,Yes,No
0.4875,0.733333,None,No,Medium,Low,Female,Yes,Low,No,No,No,Yes,No
0.2875,0.183333,High,Yes,Medium,Medium,Female,Yes,Low,Yes,No,Yes,Yes,No
0.075,0.1,Medium,No,Low,Low,Male,No,Low,Yes,No,No,Yes,No
0.575,0.066667,Medium,Yes,Medium,Medium,Female,No,Low,Yes,No,Yes,No,No
0.125,0.816667,High,No,Medium,Medium,Female,Yes,Low,Yes,No,No,Yes,No
0.9125,0.933333,None,Yes,High,Medium,Male,Yes,Medium,Yes,No,Yes,Yes,No
0.5875,0.266667,Medium,No,Medium,High,Female,No,Medium,No,Yes,No,Yes,No
0.15,0.75,Low,No,Medium,High,Female,Yes,Medium,No,Yes,Yes,No,No
0.525,0.416667,High,No,Medium,Low,Male,Yes,High,Yes,No,Yes,Yes,No
0.2625,0.916667,Medium,Yes,Medium,High,Male,No,Medium,No,Yes,Yes,No,No
0.2625,0.9,High,Yes,Low,Low,Female,Yes,High,No,Yes,No,Yes,No
0.65,0.383333,Medium,Yes,High,Medium,Male,Yes,Low,No,Yes,No,Yes,No
0.675,0.2,High,Yes,Medium,High,Male,No,Low,No,No,Yes,Yes,No
0.225,0.75,None,No,Medium,Medium,Female,Yes,Medium,Yes,No,Yes,Yes,No
0.875,0.95,None,Yes,Low,Medium,Male,No,Medium,No,No,No,No,No
0.1875,0.6,Medium,No,Medium,Medium,Male,No,Medium,No,Yes,Yes,Yes,No
0.4375,0.35,None,No,High,High,Female,No,Medium,Yes,No,No,No,No
0.7875,0.5,Low,No,Medium,High,Male,Yes,Medium,No,Yes,Yes,No,No
0.7625,0.983333,None,No,Low,Medium,Female,No,Low,Yes,No,Yes,No,No
0.75,0.083333,Low,Yes,High,Medium,Female,Yes,High,Yes,No,Yes,Yes,No
0.775,0.483333,Medium,Yes,Medium,Low,Female,No,High,Yes,No,Yes,No,No
0.9875,0.716667,High,No,Low,Low,Female,Yes,Medium,Yes,No,Yes,No,No
0.2,0.733333,None,Yes,Medium,Low,Female,Yes,Medium,No,Yes,No,Yes,No
0.025,0.433333,High,No,High,Medium,Male,No,Low,Yes,Yes,No,No,No
0.5625,0.1,Medium,No,Low,Low,Female,No,High,No,Yes,Yes,Yes,No
0.375,0.4,High,Yes,Low,High,Female,Yes,Medium,Yes,Yes,Yes,Yes,No
0.175,0.683333,Medium,Yes,Low,Medium,Male,No,Low,No,No,Yes,Yes,No
0.075,0.483333,High,Yes,High,High,Female,No,High,Yes,No,Yes,Yes,No
0.9,0.216667,Low,No,Medium,Low,Male,No,Low,No,No,No,Yes,No
0.6875,0.833333,Medium,Yes,Low,Medium,Male,Yes,Medium,No,No,Yes,No,No
0.6125,0.683333,None,No,Medium,High,Female,No,Medium,Yes,No,No,No,No
0.8625,0.366667,High,No,High,Low,Male,No,High,No,Yes,No,Yes,No
0.7875,0.4,Low,No,Medium,Low,Male,No,High,Yes,Yes,No,No,No
0.35,1,Medium,No,Low,Medium,Male,Yes,Low,No,Yes,No,No,No
0.7875,0.8,None,Yes,High,Medium,Male,Yes,High,Yes,No,No,Yes,No
0.95,0.6,Low,No,Medium,Low,Male,Yes,Low,Yes,No,Yes,Yes,No
0.0125,0.283333,Medium,Yes,Low,Medium,Female,Yes,High,No,No,No,Yes,No
0.5125,0.683333,Low,Yes,High,Medium,Male,No,Low,Yes,No,Yes,Yes,No
0,0.083333,None,Yes,High,High,Female,No,Low,No,Yes,No,Yes,No
0.9,0.016667,None,No,Low,Low,Female,Yes,Low,No,Yes,Yes,Yes,No
0.2625,0.333333,High,No,High,Low,Male,No,High,Yes,Yes,No,No,No
0.5375,0.133333,Low,Yes,High,High,Female,No,High,Yes,No,Yes,Yes,No
0.1625,0.216667,Medium,No,High,Medium,Male,Yes,Low,Yes,No,Yes,Yes,No
0.3875,0.4,High,No,High,Medium,Male,Yes,High,No,Yes,No,Yes,No
0.025,0.5,Medium,No,Low,Medium,Male,Yes,High,Yes,Yes,Yes,No,No
0.7625,0.216667,High,Yes,Medium,Medium,Male,Yes,Medium,No,No,Yes,Yes,No
0.5,0.933333,Low,No,High,Medium,Male,No,High,Yes,No,Yes,Yes,No
0.8875,0.666667,Medium,Yes,Medium,High,Female,Yes,Medium,Yes,No,Yes,Yes,No
0.95,0.966667,Medium,Yes,Medium,Medium,Male,No,Medium,Yes,Yes,No,No,No
0.4375,0.933333,Medium,Yes,Low,Low,Male,Yes,Medium,Yes,Yes,Yes,No,No
0.4375,0.783333,None,Yes,High,Low,Male,No,High,Yes,Yes,Yes,No,No
0.525,0.45,Medium,No,High,Low,Female,No,Low,No,No,Yes,Yes,No
0.7625,0.233333,None,No,Medium,Medium,Male,Yes,Low,No,Yes,No,No,No
1,0.266667,High,Yes,Medium,Medium,Female,Yes,Low,No,No,No,No,No
0.725,0.35,High,Yes,Low,Medium,Male,Yes,Medium,No,Yes,No,Yes,No
0.7125,0.833333,Low,No,Low,High,Female,Yes,Medium,Yes,Yes,Yes,Yes,No
0.9625,0.95,None,No,High,High,Male,Yes,Medium,No,No,Yes,No,No
0.95,0.116667,Medium,Yes,Medium,Low,Female,Yes,High,Yes,Yes,No,Yes,No
0.6625,1,None,No,High,Medium,Male,Yes,High,No,Yes,No,Yes,No
0.7125,0.8,High,Yes,High,Medium,Female,No,Low,No,No,No,Yes,No
0.3875,0.133333,Low,Yes,Low,Low,Male,No,High,Yes,No,No,No,No
0.9125,0.45,Medium,No,Low,Low,Female,No,High,Yes,Yes,Yes,Yes,No
0.1,0.416667,None,Yes,Medium,Medium,Female,Yes,High,Yes,No,No,Yes,No
0.0125,0.716667,None,Yes,Medium,Medium,Female,No,High,Yes,Yes,No,Yes,No
0.6875,0.533333,High,No,Low,High,Male,No,Low,No,Yes,No,Yes,No
0.9375,0.15,Low,No,Medium,High,Male,No,Medium,No,No,Yes,No,No
0.9125,0.9,High,No,Low,Low,Female,Yes,High,No,Yes,No,Yes,No
0.7875,0.183333,None,Yes,Low,Medium,Female,No,Low,Yes,Yes,No,No,No
0.8875,1,Low,Yes,High,Low,Male,Yes,Medium,Yes,Yes,Yes,Yes,No
0.7875,0.5,Low,No,Medium,High,Male,Yes,Medium,No,Yes,Yes,No,No
0.9875,0.233333,Low,Yes,High,Medium,Female,No,Low,Yes,Yes,No,No,No
0.9,0.45,High,Yes,Medium,Medium,Female,Yes,Low,Yes,Yes,Yes,No,No
0.8625,0.316667,Low,No,Low,High,Male,Yes,High,Yes,No,No,Yes,No
0.2375,0.716667,Medium,Yes,Low,Low,Male,No,Low,No,No,Yes,No,No
0.45,0.283333,None,Yes,Medium,Low,Female,Yes,High,Yes,Yes,No,Yes,No
0.375,0.966667,None,Yes,Low,Low,Female,Yes,Low,No,Yes,No,No,No
0.4875,0.55,Medium,Yes,High,High,Male,Yes,High,Yes,Yes,No,No,No
0.025,0.6,Medium,No,Medium,High,Male,No,Medium,No,No,No,No,No
0.5625,0.233333,High,Yes,Medium,Low,Female,No,Medium,Yes,No,No,Yes,No
0.15,0.433333,Medium,Yes,High,Medium,Female,No,High,No,No,Yes,No,No
0.3,0.716667,Medium,No,Medium,High,Male,No,Medium,Yes,No,No,Yes,No
0.7125,0.266667,None,Yes,High,High,Male,Yes,Medium,No,Yes,Yes,Yes,No
0.4,0.495962,None,Yes,Low,Low,Male,No,Medium,No,No,No,No,No
0.4375,0.833333,High,No,Low,Low,Male,No,High,Yes,No,Yes,No,No
0.35,0.633333,None,No,High,Medium,Male,No,Medium,No,Yes,Yes,Yes,No
0.1375,0.433333,Medium,No,Low,Medium,Female,No,Medium,No,Yes,No,Yes,No
0.45,0.2,High,Yes,High,Medium,Male,Yes,High,Yes,No,Yes,Yes,No
0.075,0.916667,High,Yes,Low,Medium,Female,No,High,Yes,Yes,Yes,Yes,No
0.25,0.15,Medium,No,Medium,Medium,Female,No,Low,Yes,No,Yes,No,No
0.2375,0.216667,Medium,Yes,High,Low,Female,No,Medium,No,Yes,Yes,Yes,No
0.575,0.766667,High,No,Medium,Low,Male,No,High,Yes,No,No,Yes,No
0.6625,0.55,Medium,Yes,High,Medium,Male,No,Low,Yes,Yes,No,No,No
0.9,0.166667,Low,No,Medium,Medium,Female,Yes,Low,Yes,Yes,No,Yes,No
0.4,0.116667,Medium,Yes,Low,Low,Female,No,Low,Yes,Yes,No,Yes,No
0.4125,0.816667,Medium,No,Low,Low,Female,Yes,High,No,Yes,Yes,No,No
1,0.266667,Medium,Yes,Medium,Low,Male,No,Medium,No,No,Yes,Yes,No
0.425,0.2,Low,No,High,High,Female,Yes,Medium,Yes,No,No,No,No
0.975,0,None,No,High,Medium,Male,No,High,Yes,Yes,Yes,No,No
0.7375,0.733333,Low,No,High,Medium,Female,No,High,Yes,Yes,No,Yes,No
0.3125,0.733333,None,Yes,High,Low,Male,Yes,Medium,Yes,Yes,Yes,No,No
0.875,0.45,High,Yes,Medium,Medium,Male,No,Low,No,Yes,Yes,No,No
0.7,0.783333,Medium,No,Medium,Low,Male,No,Low,Yes,Yes,No,No,No
0.8,0.133333,Low,Yes,Medium,Medium,Male,No,High,Yes,No,Yes,No,No
0.0875,0.25,Medium,No,High,Medium,Male,Yes,Low,Yes,Yes,Yes,Yes,No
0.225,0.716667,Low,Yes,Medium,Medium,Female,No,Medium,Yes,No,No,No,No
0.8625,0.866667,Low,No,High,Medium,Male,No,Medium,Yes,No,Yes,No,No
0.325,0.316667,Low,No,High,High,Female,Yes,Low,Yes,No,Yes,Yes,No
0.9,0.35,High,Yes,High,High,Male,No,Low,Yes,Yes,No,Yes,No
0.4875,0.683333,High,No,Medium,Medium,Female,Yes,High,No,No,Yes,No,No
0,0.133333,None,No,High,High,Male,Yes,Low,Yes,Yes,No,No,No
0.8,0.733333,Low,No,High,Medium,Male,Yes,Low,No,No,Yes,No,No
0.5,0.5,Medium,Yes,Medium,Low,Female,Yes,Medium,No,Yes,Yes,No,No
0.875,1,Medium,Yes,Low,Low,Male,No,High,No,Yes,Yes,Yes,No
0.65,0.216667,Low,Yes,Low,Low,Female,No,High,Yes,Yes,No,Yes,No
0.525,0.583333,None,Yes,Medium,Medium,Female,No,Medium,No,Yes,No,Yes,No
0.5625,0.533333,None,No,Low,High,Female,No,High,Yes,Yes,No,Yes,No
0.5,0.75,High,Yes,Low,Medium,Male,Yes,Low,Yes,Yes,Yes,No,No
0.4875,0.366667,Low,No,High,Medium,Female,Yes,Low,No,No,Yes,Yes,No
0.9875,0.183333,None,Yes,High,Medium,Female,No,High,Yes,Yes,Yes,No,No
0.85,0,Medium,No,Medium,High,Female,No,Low,No,No,Yes,Yes,No
0.4625,0.933333,None,No,Low,High,Male,Yes,High,No,Yes,No,No,No
0.4625,0.733333,None,No,Medium,Medium,Female,Yes,Low,No,Yes,No,Yes,No
0.925,0.733333,High,Yes,Medium,Low,Male,No,Medium,Yes,Yes,No,No,No
0.8625,0.366667,Low,Yes,High,High,Male,No,Medium,Yes,No,No,No,No
0.775,0.55,Medium,Yes,Medium,High,Male,Yes,Medium,No,No,No,Yes,No
0.7125,0.066667,Medium,Yes,Low,High,Male,Yes,Low,Yes,No,No,No,No
0.1875,0.183333,None,Yes,High,High,Female,Yes,Medium,No,Yes,Yes,Yes,No
0.55,0.45,Medium,Yes,Low,Low,Male,No,Low,Yes,No,No,Yes,No
0.2875,0.133333,Medium,Yes,High,Medium,Female,No,Medium,No,No,No,No,No
0.0625,0.2,Low,No,Low,Low,Male,Yes,Medium,No,No,Yes,Yes,No
0.2625,1,High,Yes,Medium,Low,Male,Yes,Low,Yes,Yes,Yes,Yes,No
0.5125,0.3,None,No,High,Low,Female,Yes,Low,No,No,No,Yes,No
0.2,0.216667,Medium,Yes,Low,High,Male,No,High,No,No,Yes,No,No
0.4,0.166667,High,Yes,Low,High,Male,Yes,Low,Yes,No,No,Yes,No
0.55,0.233333,None,No,Low,Medium,Male,No,Medium,Yes,Yes,No,Yes,No
0.1625,0.383333,Low,No,Medium,High,Male,Yes,Medium,Yes,No,Yes,No,No
0.375,0.95,None,Yes,High,Low,Female,No,High,No,Yes,Yes,Yes,No
0.2375,0.8,High,Yes,Medium,Low,Male,Yes,High,Yes,No,No,Yes,No
0.4625,0.816667,Medium,Yes,Medium,High,Male,Yes,Low,No,No,No,Yes,No
0.5625,0.1,Low,No,Medium,Low,Female,No,High,No,Yes,No,No,No
0.8875,0.666667,Medium,Yes,Medium,High,Female,Yes,Medium,Yes,No,Yes,Yes,No
0.7375,0.183333,High,No,Low,High,Male,Yes,Medium,Yes,No,Yes,No,No
0.425,0.666667,Low,No,Low,Medium,Male,Yes,Low,No,Yes,Yes,No,No
0.6875,0.266667,Medium,No,Medium,High,Female,Yes,High,No,Yes,No,No,No
0.125,0.783333,Medium,Yes,High,Low,Female,Yes,Medium,No,Yes,No,Yes,No
0.425,0.533333,Low,No,Medium,Medium,Male,No,High,Yes,No,Yes,No,No
0.85,0.966667,None,Yes,High,Low,Male,Yes,Low,Yes,Yes,Yes,Yes,No
0.775,0.266667,Low,Yes,High,Low,Male,No,High,No,Yes,No,Yes,No
0.7875,0.883333,Medium,Yes,Low,High,Male,No,High,Yes,Yes,Yes,No,No
0.7875,0.966667,Medium,No,High,Medium,Male,Yes,High,Yes,Yes,No,No,No
1,0.016667,High,Yes,Medium,High,Female,No,Medium,No,No,No,No,No
0.825,0.2,Medium,Yes,High,High,Male,No,Low,Yes,No,No,No,No
0.375,0.033333,High,Yes,Medium,Low,Male,Yes,Medium,Yes,No,No,No,No
0.7875,0.8,None,Yes,High,Low,Female,Yes,Medium,Yes,No,No,No,No
0.075,0.2,None,No,Low,Medium,Female,Yes,High,No,No,No,Yes,No
0.85,0.633333,Medium,No,Low,Low,Female,Yes,Low,No,No,No,No,No
0.45,0.65,High,Yes,High,Low,Male,Yes,High,No,Yes,Yes,Yes,No
0.0875,0.816667,Medium,Yes,Low,Low,Female,No,High,No,Yes,No,No,No
0.675,0.25,Low,Yes,High,Low,Female,Yes,Low,Yes,No,No,No,No
0.8625,0.25,High,Yes,High,High,Female,Yes,Low,No,No,No,No,No
0.65,0.766667,Low,Yes,High,High,Female,Yes,High,Yes,No,No,Yes,No
0.5125,0.816667,None,No,Low,Medium,Female,No,Medium,No,No,Yes,Yes,No
0.1375,0.783333,Medium,No,High,High,Male,Yes,Low,Yes,Yes,Yes,Yes,No
0.4875,0.716667,Low,Yes,Medium,High,Male,No,Medium,No,No,No,No,No
0.05,0.266667,Low,No,Low,High,Female,No,High,No,Yes,No,No,No
0.6,0.533333,Low,No,Medium,Low,Male,No,Medium,Yes,No,No,Yes,No
0.25,0.383333,High,Yes,High,High,Female,No,High,Yes,Yes,Yes,No,No
0.3125,0.883333,High,No,Low,Low,Male,No,Low,No,Yes,Yes,Yes,No
0.4625,0.683333,Low,No,High,Low,Female,No,Low,No,No,No,Yes,No
0.6875,0.616667,Medium,No,High,Low,Female,No,Medium,Yes,Yes,No,Yes,No
0.9125,0.183333,None,Yes,High,Medium,Male,No,Medium,No,Yes,No,No,No
0.875,0.083333,Low,No,High,Low,Male,No,Medium,Yes,Yes,Yes,No,No
0.6625,0.75,Low,No,Low,Low,Male,No,High,Yes,No,Yes,Yes,No
0.9,0.75,High,No,High,Low,Female,No,Medium,No,Yes,No,Yes,No
0.8,0.483333,Medium,No,High,Low,Female,Yes,Medium,Yes,Yes,No,No,No
0.275,0.1,Medium,No,Low,High,Male,Yes,Medium,Yes,No,No,No,No
0.9875,0.033333,High,No,High,Medium,Male,Yes,Medium,No,No,No,No,No
0.6625,0.733333,Medium,Yes,Medium,High,Male,No,Low,No,No,No,Yes,No
0.475,0.933333,Medium,No,Medium,Medium,Female,No,High,Yes,Yes,No,Yes,No
0.325,0.266667,High,No,Low,Medium,Female,Yes,Medium,No,Yes,No,No,No
0.3625,0.3,None,Yes,Low,High,Male,Yes,Low,Yes,Yes,No,Yes,No
0.8125,0.283333,Medium,No,Low,Low,Male,No,Medium,No,Yes,Yes,No,No
0.175,0.066667,Low,No,Low,Medium,Male,Yes,Low,No,No,No,No,No
0.075,0.766667,Medium,No,Low,Medium,Female,Yes,Medium,Yes,Yes,No,Yes,No
0.4875,0.616667,Medium,No,High,Medium,Female,No,Low,No,Yes,Yes,Yes,No
0.575,0.85,High,Yes,Low,Low,Male,Yes,Low,Yes,Yes,Yes,No,No
0.675,0.866667,None,No,Medium,High,Male,No,High,Yes,No,Yes,Yes,No
0.3375,0.4,None,Yes,Low,Medium,Female,No,Low,No,Yes,No,Yes,No
0.9125,0.916667,High,Yes,Medium,High,Male,No,Medium,No,No,No,Yes,No
0.025,0.483333,Medium,No,Low,High,Male,No,Medium,No,Yes,No,No,No
0.1375,0.433333,Medium,No,Low,Medium,Female,No,Medium,No,Yes,No,Yes,No
0.8375,0.45,High,No,High,Medium,Female,Yes,Low,No,No,No,Yes,No
0.0625,0.416667,Medium,No,High,High,Male,Yes,High,No,No,Yes,Yes,No
0.8,0.066667,None,No,Medium,Medium,Male,No,Medium,No,Yes,Yes,No,No
0.4625,1,High,Yes,High,Medium,Male,No,Low,Yes,No,Yes,Yes,No
0.5375,0.866667,None,Yes,Low,Low,Male,Yes,High,No,No,No,No,No
0.6375,0.2,None,No,Medium,Medium,Female,Yes,Low,No,Yes,Yes,No,No
0.775,1,Medium,Yes,Medium,Medium,Male,No,Medium,Yes,Yes,Yes,No,No
0.175,0.066667,Low,No,Low,Medium,Female,No,High,No,Yes,Yes,Yes,No
0.0875,0.15,None,Yes,Medium,High,Male,No,Low,No,No,No,No,No
0.9,0.166667,Low,No,Medium,Medium,Female,Yes,Low,Yes,Yes,No,Yes,No
0.2125,0.1,None,No,Medium,Medium,Female,No,Medium,No,No,No,No,No
0.975,0.333333,Low,Yes,Low,Medium,Female,Yes,Low,Yes,Yes,No,Yes,No
0.85,0.966667,High,No,High,Low,Male,No,Medium,Yes,No,Yes,No,No
0.9375,0.783333,Low,No,Medium,Medium,Male,Yes,Low,Yes,Yes,No,Yes,No
0.6625,0.033333,Low,Yes,High,Medium,Female,Yes,High,Yes,Yes,Yes,No,No
0.625,0.6,None,No,High,Low,Female,Yes,Low,Yes,No,No,No,No
0.575,0.45,Medium,Yes,High,Low,Male,Yes,Medium,Yes,No,No,Yes,No
0.2,0.75,Medium,No,High,Low,Female,Yes,Medium,No,Yes,Yes,Yes,No
0.1375,0.083333,None,Yes,High,High,Male,No,High,No,No,No,No,No
0.3625,0.333333,None,Yes,High,Low,Female,Yes,Medium,No,Yes,Yes,No,No
0.5,0.383333,None,No,Medium,High,Male,No,High,No,Yes,Yes,No,No
0.05,0.233333,High,No,Low,Medium,Female,Yes,Medium,Yes,No,No,No,No
0.7,0.116667,None,No,Low,High,Male,No,High,Yes,Yes,No,No,No
0.225,0.083333,High,No,High,High,Male,No,Medium,No,Yes,Yes,No,No
0.325,0.016667,Low,Yes,Low,Medium,Male,Yes,Low,Yes,Yes,Yes,Yes,No
0.4875,0,Medium,Yes,High,Low,Female,Yes,Medium,Yes,No,Yes,Yes,No
0.725,0.133333,Medium,No,Medium,High,Female,Yes,High,Yes,No,Yes,Yes,No
0.7875,0.316667,Medium,No,Low,Medium,Female,No,High,No,No,Yes,Yes,No
0.3875,0.016667,High,Yes,Low,High,Male,No,High,No,No,Yes,Yes,No
0.4125,0.35,None,Yes,High,Medium,Male,Yes,Medium,Yes,No,No,Yes,No
0.9125,0.566667,Low,Yes,Medium,Low,Male,No,Medium,Yes,Yes,No,Yes,No
0.6,0.233333,Medium,Yes,High,Medium,Female,No,High,No,Yes,Yes,Yes,No
0.325,0.766667,Low,Yes,Low,Medium,Female,No,Medium,Yes,No,No,No,No
0.8125,0.05,Medium,No,Low,Medium,Male,No,High,No,No,Yes,No,No
0.8,0.666667,High,No,Low,Medium,Male,No,High,Yes,Yes,Yes,No,No
0.9125,0.466667,Low,No,Medium,Medium,Male,No,Low,No,Yes,No,No,No
0.35,0.566667,None,No,High,High,Male,No,Low,No,Yes,No,No,No
0.3875,0.433333,Medium,No,Low,Low,Male,No,Low,Yes,Yes,No,Yes,No
0.35,0.466667,High,Yes,High,Medium,Male,Yes,Medium,No,No,No,Yes,No
0.1125,0.85,None,No,Medium,Medium,Male,Yes,High,Yes,No,Yes,Yes,No
0.5625,0.516667,None,Yes,Low,Medium,Female,No,High,No,No,No,Yes,No
0.5875,0.1,Medium,No,High,High,Male,No,High,No,Yes,No,No,No
0.9375,0.866667,None,No,Medium,Medium,Female,Yes,Medium,Yes,Yes,Yes,Yes,No
0.7625,0.433333,None,No,Low,Low,Male,No,High,No,No,No,No,No
0.8125,0.5,High,No,High,Medium,Female,No,Low,No,No,Yes,No,No
0.075,0.716667,Medium,No,High,Medium,Male,No,Medium,Yes,Yes,No,No,No
0.1375,0.2,Low,Yes,Low,High,Male,No,Medium,Yes,Yes,No,Yes,No
0.3375,1,High,Yes,High,High,Female,Yes,Medium,Yes,No,No,Yes,No
0.7125,0.616667,High,Yes,Low,Medium,Female,Yes,Low,Yes,No,No,Yes,No
0.775,0.983333,Medium,No,High,Medium,Male,Yes,Low,No,Yes,Yes,No,No
0.7875,0.45,Medium,No,High,Medium,Male,Yes,Low,Yes,Yes,No,Yes,No
0.575,0.633333,Medium,Yes,High,Medium,Female,No,Medium,Yes,No,No,Yes,No
0.65,0.666667,High,Yes,Medium,High,Female,Yes,Low,No,No,No,Yes,No
0.5125,0.183333,Medium,Yes,Medium,High,Male,Yes,Medium,Yes,No,Yes,Yes,No
0.2375,0.216667,High,Yes,Medium,Medium,Male,Yes,High,Yes,No,No,No,No
0.7,0.116667,None,No,High,High,Female,No,Medium,No,Yes,No,Yes,No
0.2,0.783333,Low,Yes,High,Medium,Male,No,Medium,Yes,Yes,Yes,Yes,No
0.275,0.483333,None,No,High,Medium,Male,Yes,High,No,Yes,Yes,Yes,No
0.925,0.8,None,No,High,High,Male,Yes,Medium,No,No,Yes,No,No
0.0625,0.783333,High,No,Low,High,Male,Yes,High,Yes,No,Yes,Yes,No
0.1625,0.8,Low,No,High,Medium,Female,Yes,Medium,No,Yes,No,No,No
0.9625,0.666667,Low,Yes,High,High,Female,Yes,Medium,No,No,Yes,Yes,No
0.0375,0.633333,Low,Yes,Low,Low,Male,No,High,No,No,No,No,No
0.55,0.25,None,No,High,Low,Male,Yes,High,No,No,Yes,No,No
0.575,0.85,High,Yes,Low,Low,Male,Yes,Low,Yes,Yes,Yes,No,No
0.9125,0.983333,None,No,Medium,Medium,Female,No,Low,Yes,Yes,Yes,Yes,No
0.725,0.75,High,Yes,High,High,Male,Yes,Medium,No,No,Yes,No,No
0.7125,0.233333,None,Yes,Medium,High,Female,Yes,High,No,Yes,No,No,No
0.4125,0.266667,High,Yes,Medium,Medium,Male,No,Low,Yes,Yes,Yes,Yes,No
0.0625,0.366667,High,Yes,High,Medium,Female,No,High,No,No,Yes,No,No
0.675,0.85,None,No,Low,Low,Female,Yes,Medium,Yes,No,No,Yes,No
0.65,0.666667,Medium,Yes,Low,High,Male,No,Low,Yes,Yes,No,Yes,No
0.325,0.5,High,No,Low,Medium,Male,Yes,High,Yes,No,Yes,No,No
0.55,0.4,Medium,Yes,Medium,High,Male,Yes,High,No,No,No,No,No
0.4,0.883333,None,Yes,Medium,High,Male,No,Low,Yes,Yes,No,Yes,No
0.7,0.566667,Low,Yes,Medium,Low,Female,No,Low,No,Yes,No,Yes,No
0.4,0.466667,Low,No,Low,Medium,Female,No,Low,Yes,Yes,No,No,No
0.7,0.766667,Medium,Yes,Low,High,Male,Yes,High,Yes,Yes,Yes,No,No
1,0.483333,None,Yes,Low,Low,Male,No,Medium,Yes,Yes,Yes,No,No
0.25,0.85,None,No,High,Medium,Male,No,Low,Yes,No,Yes,Yes,No
0.8,0.9,Medium,No,High,High,Male,Yes,Low,Yes,Yes,Yes,Yes,No
0.375,0.716667,None,No,Low,Low,Male,No,High,No,No,Yes,Yes,No
0.2375,0.4,Low,Yes,Low,High,Female,No,Medium,No,Yes,Yes,Yes,No
0.0375,0.5,High,No,Low,Low,Female,No,Medium,Yes,No,No,No,No
0.275,0.05,High,No,Medium,High,Female,No,Low,Yes,No,No,Yes,No
0.45,0.35,High,Yes,High,Low,Female,No,High,No,No,No,Yes,No
0.8625,0.15,High,No,Low,Low,Female,Yes,Low,No,Yes,Yes,Yes,No
0.0875,0.216667,None,No,High,Low,Female,Yes,Medium,Yes,Yes,No,No,No
0.15,0.133333,High,No,Medium,Low,Female,No,High,Yes,No,No,No,No
1,0.716667,Low,No,Low,Medium,Female,No,Low,Yes,No,No,No,No
0.0875,0.166667,None,No,Medium,Low,Female,Yes,Medium,No,No,Yes,No,No
0.4,0.35,Low,No,High,Medium,Male,No,High,No,No,Yes,No,No
0.575,0.766667,High,No,Medium,Low,Male,No,High,Yes,No,No,Yes,No
0.875,0.35,Medium,No,Medium,Medium,Male,No,Low,Yes,Yes,Yes,No,No
0.0375,0.65,High,Yes,Medium,High,Male,Yes,High,Yes,Yes,Yes,No,No
0.55,0.5,Medium,No,Low,Low,Female,Yes,High,No,No,Yes,No,No
0.9625,0.033333,Low,Yes,High,Medium,Female,Yes,Medium,No,No,Yes,Yes,No
0.6375,0.55,None,No,Medium,Medium,Female,No,Medium,No,Yes,Yes,Yes,No
0.375,0.966667,None,Yes,Low,Medium,Male,No,Medium,Yes,Yes,No,Yes,No
0.025,0.133333,Medium,Yes,Low,Low,Male,No,Medium,Yes,Yes,Yes,No,No
0.2,0.416667,High,Yes,Medium,Medium,Male,Yes,Low,No,No,Yes,Yes,No
0.375,0.25,High,Yes,High,High,Male,No,Medium,No,Yes,No,Yes,No
0.6,0.983333,Medium,Yes,Medium,High,Male,No,Medium,No,No,No,Yes,No
0.3625,0.883333,High,No,Medium,High,Female,Yes,Medium,No,No,No,Yes,No
0.0625,0.583333,None,No,High,Medium,Male,No,Medium,Yes,Yes,Yes,Yes,No
0.9,0.95,High,No,Medium,Medium,Male,No,Low,Yes,No,No,Yes,No
0.15,0.766667,None,No,Medium,High,Female,No,Medium,Yes,No,No,No,No
0.2125,0.616667,Low,No,Medium,Low,Female,Yes,High,Yes,No,Yes,Yes,No
0.6125,0.066667,None,Yes,Low,High,Male,Yes,Medium,No,No,No,Yes,No
0.75,0.566667,Low,Yes,Medium,Low,Male,No,Medium,No,No,No,No,No
0.3875,0.383333,High,No,Medium,Medium,Male,Yes,Low,Yes,Yes,Yes,Yes,No
0.85,0.366667,High,Yes,Medium,Medium,Female,No,Low,No,No,Yes,No,No
0.8375,0.916667,Low,No,High,High,Male,No,High,Yes,Yes,No,No,No
0.225,0.333333,None,No,Medium,Medium,Female,No,High,Yes,Yes,No,No,No
0.25,0.916667,Low,No,Low,Medium,Male,No,Low,Yes,No,No,No,No
0.7375,0.483333,Low,Yes,Medium,Low,Female,Yes,Low,Yes,No,No,No,No
0.8875,0,High,Yes,High,Medium,Male,No,High,Yes,No,Yes,Yes,No
0.1625,0.366667,Low,No,Medium,High,Male,No,High,Yes,No,Yes,Yes,No
0.5875,0.45,High,No,Medium,Low,Female,Yes,High,Yes,No,No,Yes,No
0.925,0.483333,High,No,Low,Low,Male,No,Low,Yes,Yes,No,Yes,No
0.025,0.55,Medium,Yes,Medium,Low,Male,No,Medium,No,Yes,Yes,No,No
0.975,1,Low,Yes,Medium,Medium,Male,No,High,Yes,No,No,No,No
0.45,0.85,Medium,Yes,Low,Low,Male,No,Medium,No,Yes,Yes,Yes,No
0,0.983333,None,Yes,High,Low,Male,Yes,High,Yes,Yes,Yes,No,No
0.075,0.533333,None,Yes,Medium,Medium,Female,Yes,High,No,Yes,No,Yes,No
0.425,0.716667,None,Yes,Medium,Medium,Female,No,Medium,No,No,No,Yes,No
0.375,0.316667,High,Yes,Low,Medium,Male,Yes,Medium,Yes,No,Yes,No,No
0.1125,0.166667,High,No,Low,High,Female,No,Low,Yes,No,No,No,No
0.0875,0.15,Medium,No,High,Low,Female,No,Medium,Yes,Yes,Yes,No,No
0.65,0.333333,Medium,No,High,Low,Female,Yes,Low,Yes,No,Yes,No,No
0.225,0.55,Medium,No,Low,Medium,Male,No,High,Yes,No,Yes,Yes,No
0.2125,0.033333,None,No,Medium,Medium,Female,Yes,Low,No,Yes,Yes,Yes,No
0.35,0.85,Medium,No,Low,Low,Male,No,High,No,No,Yes,Yes,No
0.85,0.633333,Medium,No,Low,Low,Female,Yes,Low,No,No,No,No,No
0.825,0.2,Medium,Yes,High,High,Male,No,Low,Yes,No,No,No,No
0.65,0.233333,Low,Yes,High,Medium,Male,Yes,High,No,Yes,Yes,Yes,No
0.6125,0.066667,Low,No,High,Low,Female,Yes,Low,Yes,Yes,Yes,Yes,No
0.2,0.366667,Medium,No,Medium,High,Female,No,High,Yes,Yes,Yes,No,No
0.075,0.866667,None,Yes,Low,Low,Male,No,Medium,No,Yes,Yes,Yes,No
0.4,0.95,High,Yes,Low,High,Male,No,Low,Yes,No,Yes,Yes,No
0.825,0.8,High,No,Low,Low,Female,Yes,Low,No,Yes,No,Yes,No
0,0.316667,High,Yes,Medium,Medium,Female,No,High,Yes,No,No,No,No
0.5375,0.85,Medium,Yes,High,Medium,Male,No,High,Yes,No,Yes,No,No
0.4125,0.116667,High,Yes,High,Low,Female,No,High,Yes,No,No,Yes,No
0.8625,0.733333,None,No,High,Medium,Female,No,Medium,No,Yes,Yes,No,No
0.9,0.883333,Medium,Yes,Medium,Low,Female,No,Medium,Yes,No,Yes,No,No
0.7625,0.633333,High,No,Medium,Low,Female,No,Medium,No,No,No,Yes,No
0.2375,0.35,Medium,Yes,High,High,Male,Yes,High,No,Yes,Yes,No,No
0.3875,0.6,None,No,Low,Low,Female,No,High,No,Yes,Yes,No,No
0,0.366667,Medium,Yes,Low,Low,Female,Yes,Medium,No,Yes,Yes,No,No
0.9625,0.683333,None,No,Medium,Low,Male,Yes,High,No,Yes,No,Yes,No
0.5375,0.45,High,No,High,Low,Female,Yes,Low,Yes,No,No,Yes,No
0.25,0.6,Medium,No,Low,Low,Male,Yes,Medium,Yes,Yes,No,No,No
0.8875,0.216667,Low,No,High,Low,Female,No,Low,Yes,Yes,No,Yes,No
0.1625,0.716667,Low,Yes,Medium,Low,Male,Yes,Medium,No,No,No,No,No
0.8875,0.233333,Low,Yes,High,High,Male,Yes,High,Yes,Yes,Yes,No,No
0.3125,0.566667,Low,No,High,Medium,Female,No,Low,Yes,No,No,Yes,No
0.9625,0,None,Yes,Medium,High,Male,No,Medium,No,Yes,No,Yes,No
0.3,0.25,Medium,Yes,Low,High,Male,Yes,High,Yes,No,No,No,No
0.475,0.7,None,No,Medium,Medium,Male,Yes,High,No,No,No,No,No
0.8625,0.116667,High,No,High,High,Male,No,Low,Yes,Yes,No,No,No
0.1,0.266667,Low,Yes,Medium,High,Female,Yes,High,No,Yes,Yes,No,No
0.4125,0.65,Low,No,Medium,Low,Female,No,High,Yes,Yes,Yes,No,No
0.5375,0.933333,High,No,High,High,Female,Yes,Medium,No,Yes,Yes,No,No
0.5875,0.816667,Medium,No,Medium,High,Female,Yes,Medium,No,No,Yes,Yes,No
0.5875,0.75,Low,No,Medium,Low,Male,Yes,High,Yes,No,Yes,No,No
0.2375,0.583333,None,Yes,Low,High,Female,No,Low,No,Yes,Yes,No,No
0.8875,0.45,Medium,Yes,High,High,Male,Yes,Medium,No,Yes,Yes,No,No
0,0.983333,Low,No,High,Medium,Male,Yes,Medium,Yes,Yes,No,No,No
0.9375,0.1,Low,No,Low,High,Male,No,Low,Yes,No,Yes,No,No
0.825,0.883333,None,No,Low,Medium,Female,No,High,Yes,Yes,Yes,No,No
0.7375,0.616667,Medium,Yes,High,High,Female,Yes,High,Yes,No,Yes,No,No
0.5875,0.683333,Low,Yes,Medium,Low,Male,Yes,Low,Yes,Yes,No,Yes,No
0.775,0.016667,None,No,Medium,Low,Male,No,Medium,Yes,Yes,Yes,No,No
0.7125,0.35,None,Yes,Medium,Medium,Female,No,High,No,Yes,Yes,No,No
0.525,0.516667,Medium,No,Low,Low,Female,Yes,Low,No,No,Yes,Yes,No
0.2875,0.716667,Low,No,Medium,Medium,Male,No,Medium,No,Yes,Yes,Yes,No
0.425,0.2,High,No,High,High,Male,Yes,Low,No,No,Yes,Yes,No
0.8,0.016667,Medium,No,Low,Low,Male,No,High,Yes,No,Yes,No,No
0.2,0.566667,None,Yes,Medium,Low,Male,No,Medium,Yes,Yes,No,No,No
0.4625,0.616667,None,No,High,High,Male,No,Low,Yes,Yes,Yes,Yes,No
0.175,0.15,Medium,No,Medium,Low,Male,No,Low,No,No,Yes,Yes,No
0.0125,0.6,High,Yes,Medium,Medium,Female,Yes,High,Yes,Yes,Yes,No,No
0.7625,0.783333,None,Yes,High,High,Female,Yes,High,Yes,No,No,No,No
0.6375,0.133333,High,Yes,Medium,Low,Male,No,Medium,No,Yes,Yes,Yes,No
0.1125,0,Medium,No,Medium,Low,Female,Yes,Low,Yes,No,No,No,No
0.4,0.183333,None,No,Medium,Low,Female,No,Low,Yes,No,No,Yes,No
0.775,0.866667,High,No,Medium,Low,Male,No,High,No,No,Yes,No,No
0.825,1,Low,Yes,Low,Low,Male,No,Low,No,No,Yes,No,No
0.7,0.116667,High,Yes,High,Low,Male,No,High,Yes,No,No,No,No
0.5625,0.333333,None,Yes,Low,Medium,Female,Yes,Low,Yes,No,Yes,Yes,No
0.25,0.783333,Medium,No,Low,Medium,Female,No,High,No,No,Yes,Yes,No
0.9125,0.1,High,No,Medium,High,Female,No,Medium,Yes,No,Yes,No,No
0.0375,0.45,Low,Yes,Low,Low,Male,Yes,Low,No,No,No,Yes,No
0.7875,0.65,High,Yes,Medium,High,Male,No,Low,No,Yes,Yes,No,No
0.1125,0.65,None,No,Low,High,Female,Yes,Medium,Yes,No,Yes,No,No
0.8375,0.283333,None,Yes,Low,Low,Female,Yes,High,Yes,Yes,No,Yes,No
0.2,0.666667,Medium,No,Medium,High,Male,Yes,Low,No,Yes,No,No,No
0.6875,0.55,Medium,Yes,Medium,Medium,Female,No,Medium,Yes,No,Yes,Yes,No
0.4875,0.65,High,No,Low,Low,Female,Yes,High,Yes,No,No,No,No
0.9125,0.716667,High,No,High,High,Male,Yes,Medium,No,No,No,Yes,No
0.6625,0.733333,Medium,Yes,Medium,High,Male,No,Low,No,No,No,Yes,No
0.7375,0.383333,Low,Yes,Low,Low,Female,Yes,Medium,No,Yes,No,No,No
0.2,0.316667,None,Yes,High,Low,Male,Yes,Low,Yes,Yes,No,No,No
0.5375,0.866667,Low,Yes,Low,Low,Male,No,Low,Yes,No,Yes,Yes,No
0.775,0.55,Medium,Yes,Medium,High,Male,Yes,Medium,No,No,No,Yes,No
0.925,0.016667,Medium,Yes,Low,Medium,Male,Yes,High,Yes,Yes,No,Yes,No
0.975,1,Low,Yes,Medium,Medium,Male,No,High,Yes,No,No,No,No
0.3625,0.15,Low,Yes,High,Low,Male,No,Medium,Yes,No,No,No,No
0.7125,0.066667,Medium,No,Medium,Medium,Male,No,Low,No,No,No,No,No
0.2,0.383333,Low,No,Low,Low,Male,No,Low,No,No,No,No,No
0.575,0.383333,High,No,Medium,Low,Male,Yes,Medium,Yes,Yes,No,Yes,No
0.95,0.733333,Low,No,High,Low,Female,Yes,Low,No,No,No,Yes,No
0.7,1,None,No,Medium,Medium,Female,Yes,Low,Yes,No,Yes,No,No
0.675,0.083333,Medium,No,Medium,Low,Male,No,High,Yes,Yes,No,Yes,No
0.1125,0.616667,Medium,Yes,Medium,Medium,Female,No,High,No,Yes,Yes,Yes,No
0.0875,0.533333,Low,No,High,Low,Male,No,Low,Yes,No,No,Yes,No
0.875,0.95,None,Yes,Low,Medium,Male,No,Medium,No,No,No,No,No
0.325,0.316667,Low,No,High,High,Female,Yes,Low,Yes,No,Yes,Yes,No
0,0.316667,High,Yes,Medium,Medium,Female,No,High,Yes,No,No,No,No
0.2375,0.4,Low,No,Low,Medium,Male,No,High,Yes,No,No,Yes,No
0.125,0.35,High,No,High,Medium,Male,No,High,Yes,Yes,Yes,No,No
0.1875,0.833333,Medium,No,Low,Medium,Female,No,High,No,Yes,Yes,No,No
0.275,0.516667,None,Yes,Low,Low,Male,Yes,Medium,Yes,No,Yes,Yes,No
0.2,0.916667,Low,No,Medium,Medium,Male,No,High,Yes,No,No,Yes,No
0.9875,0.066667,None,No,Low,High,Female,Yes,High,Yes,No,No,Yes,No
0.9,0.85,High,Yes,High,Medium,Male,No,High,Yes,Yes,Yes,No,No
0.875,0.533333,Low,Yes,High,High,Male,No,Low,No,Yes,Yes,Yes,No
0.55,0.7,Medium,No,High,Medium,Male,No,Medium,No,No,Yes,No,No
0.125,0.8,High,Yes,Low,Low,Male,No,High,No,Yes,Yes,No,No
0.175,0.3,Medium,No,Low,Medium,Female,No,Low,Yes,Yes,Yes,Yes,No
0.7625,0.316667,Medium,No,Low,High,Female,No,Low,Yes,No,No,Yes,No
0.275,0.95,High,No,High,High,Male,No,Medium,Yes,No,Yes,Yes,No
0.1875,0.5,High,Yes,Low,High,Female,No,High,Yes,Yes,Yes,Yes,No
0.9875,0.8,None,Yes,Low,Medium,Male,No,Low,No,No,No,Yes,No
0.8875,0.616667,Medium,Yes,Medium,Medium,Male,Yes,Low,No,No,No,No,No
0.325,0.516667,Medium,No,High,Low,Female,No,Medium,Yes,Yes,Yes,Yes,No
0.95,0.2,Medium,Yes,High,Low,Male,Yes,High,No,No,Yes,No,No
0.675,0.416667,None,Yes,High,Medium,Male,Yes,Medium,No,Yes,Yes,No,No
0.925,0.883333,High,Yes,High,High,Male,Yes,High,No,Yes,Yes,No,No
0.075,0.783333,None,Yes,Medium,High,Male,No,Low,No,Yes,Yes,Yes,No
0.675,0.3,None,Yes,Low,Low,Female,No,Low,Yes,Yes,No,Yes,No
0.6375,0.233333,Medium,No,Low,Medium,Female,No,Low,Yes,No,No,Yes,No
0.25,0.65,Low,No,Medium,Low,Female,No,Low,No,No,No,No,No
0.875,0.316667,Medium,Yes,Low,Medium,Female,Yes,Low,No,No,Yes,No,No
0.7875,0.65,None,No,High,Low,Male,Yes,Low,Yes,No,No,No,No
0.35,0.7,None,No,Low,Low,Female,Yes,Low,No,No,No,Yes,No
0.9875,0.316667,None,No,Medium,High,Female,No,Medium,No,No,No,Yes,No
0.85,0.35,Medium,No,Medium,Medium,Male,No,High,Yes,Yes,No,Yes,No
0.8625,0.766667,High,No,High,Low,Male,Yes,High,Yes,Yes,No,No,No
0,0.633333,Low,Yes,High,Medium,Female,No,Medium,Yes,Yes,No,Yes,No
0.7625,0.883333,None,No,Medium,Medium,Female,No,Low,No,No,Yes,Yes,No
0.475,0.683333,None,No,Low,High,Male,No,Medium,Yes,Yes,Yes,Yes,No
0.0875,0,Medium,No,Low,Low,Female,Yes,Low,Yes,No,No,Yes,No
0.525,0.65,High,No,High,High,Female,No,Medium,Yes,No,Yes,No,No
0.075,0.383333,Medium,No,High,High,Male,Yes,Low,Yes,No,Yes,No,No
0.3625,0.083333,Low,Yes,Low,Medium,Male,Yes,High,No,No,No,Yes,No
0.6375,0.983333,High,No,High,Low,Male,Yes,Low,No,Yes,No,No,No
0.8375,0.65,High,No,Low,Medium,Male,No,Low,No,No,No,Yes,No
0.7125,0.5,High,Yes,Medium,High,Female,No,Medium,No,No,Yes,Yes,No
0.95,0.533333,Medium,No,Medium,Low,Female,No,High,Yes,Yes,Yes,No,No
0.7375,0.116667,Low,Yes,High,Low,Female,Yes,High,No,No,No,Yes,No
0.825,0.216667,High,Yes,Medium,Low,Male,Yes,Low,No,Yes,No,Yes,No
0.6875,0.616667,High,Yes,Low,High,Male,Yes,Medium,Yes,Yes,Yes,Yes,No
0.0125,0.566667,Low,Yes,Low,Low,Female,No,Medium,No,Yes,No,Yes,No
0.9875,0.316667,Medium,Yes,High,Low,Male,No,Medium,No,No,No,Yes,No
0.725,0.683333,Medium,No,Medium,Medium,Female,Yes,Low,No,No,Yes,No,No
0.2125,0.833333,Medium,No,Low,Low,Male,Yes,High,Yes,No,No,Yes,No
0.5625,0.75,Low,No,High,Low,Female,Yes,High,No,No,Yes,No,No
0.85,0.033333,Low,Yes,Low,Low,Female,No,Medium,Yes,Yes,Yes,Yes,No
0.8625,0.416667,None,Yes,High,Low,Female,No,High,Yes,No,No,No,No
0.0375,0.566667,Low,Yes,High,High,Female,No,Medium,Yes,No,Yes,No,No
0.9,0.283333,High,No,Low,High,Male,Yes,Medium,No,Yes,Yes,Yes,No
0.9,1,Low,Yes,High,Medium,Male,Yes,Low,Yes,Yes,Yes,No,No
0.9625,0.166667,None,Yes,Low,Medium,Male,Yes,High,No,Yes,No,No,No
0.675,0.266667,Medium,Yes,Medium,Low,Female,No,High,Yes,No,Yes,Yes,No
0.1,0.95,Low,No,High,High,Female,Yes,High,Yes,No,No,Yes,No
0.05,0.65,Medium,No,High,High,Female,Yes,High,No,Yes,Yes,No,No
0.275,0.433333,High,No,Medium,High,Male,No,Medium,Yes,Yes,No,Yes,No
0.825,0.083333,Low,No,Medium,High,Female,Yes,Medium,Yes,Yes,No,No,No
0.8625,0.733333,Medium,No,Medium,Medium,Male,Yes,Low,Yes,No,No,Yes,No
0.3,0.75,Medium,No,High,Medium,Male,Yes,Low,Yes,No,No,No,No
0.3125,0.433333,Medium,No,Medium,High,Male,No,High,No,No,Yes,No,No
0.6875,0.433333,None,Yes,Low,Medium,Female,No,Medium,Yes,Yes,No,No,No
0.3625,0.8,High,No,High,High,Male,No,High,Yes,No,Yes,Yes,No
0.3125,0.3,Low,No,High,High,Female,Yes,Low,No,No,Yes,No,No
0.2,0.5,None,No,Medium,High,Female,No,High,No,Yes,No,Yes,No
0.4,0.466667,High,No,Medium,Low,Female,No,High,Yes,Yes,Yes,No,No
0.3125,0.266667,Medium,No,Low,Low,Male,No,High,No,No,No,Yes,No
0,0.133333,None,No,High,High,Male,Yes,Low,Yes,Yes,No,No,No
0.3,0.783333,Medium,Yes,Medium,High,Female,No,Low,Yes,Yes,Yes,No,No
0.925,0.183333,Low,Yes,Medium,Medium,Male,No,Medium,No,No,Yes,No,No
0.1875,0.666667,High,Yes,Low,Low,Female,No,Low,Yes,Yes,Yes,No,No
0.3125,0.033333,None,Yes,High,Medium,Female,No,High,Yes,Yes,Yes,Yes,No
0.925,0.05,None,No,Low,Medium,Male,Yes,Medium,No,No,No,No,No
0.825,0.966667,None,No,Low,High,Female,Yes,High,No,Yes,No,Yes,No
0.3625,0.533333,High,No,High,Medium,Male,No,High,Yes,Yes,Yes,No,No
0.2375,0.4,None,Yes,Low,High,Female,Yes,Low,No,No,Yes,No,No
0.0625,0.216667,High,Yes,Medium,Low,Male,No,High,Yes,Yes,Yes,No,No
0.375,0.316667,High,Yes,Low,Medium,Male,Yes,Medium,Yes,No,Yes,No,No
0.7875,0.65,None,No,Low,Low,Female,Yes,Medium,No,No,No,Yes,No
0.6625,0.35,High,Yes,High,Low,Female,Yes,Low,No,No,No,Yes,No
0.7875,0.5,Low,No,Medium,High,Male,Yes,Medium,No,Yes,Yes,No,No
0.4125,0.166667,High,Yes,Low,Medium,Male,No,High,No,Yes,Yes,No,No
0.1875,0.75,Medium,Yes,Medium,High,Female,Yes,High,Yes,No,No,Yes,No
0.5125,0.816667,None,No,Low,Medium,Female,No,Medium,No,No,Yes,Yes,No
0.2,0.416667,Medium,Yes,Medium,Medium,Male,No,Medium,Yes,Yes,No,Yes,No
0.7375,0.983333,None,Yes,Medium,Medium,Male,No,Low,Yes,No,Yes,No,No
0.8,0.816667,High,Yes,High,Low,Male,No,Medium,Yes,No,No,Yes,No
0.5,0.983333,Low,Yes,Medium,High,Male,Yes,Low,Yes,No,Yes,No,No
0.05,0.933333,Medium,No,Low,Low,Male,Yes,Low,Yes,Yes,Yes,No,No
0.8875,0.683333,Medium,Yes,Low,High,Female,No,Low,Yes,Yes,No,No,No
0.75,0.033333,High,No,High,High,Male,No,Low,No,No,Yes,Yes,No
0.3375,0.433333,High,No,High,Low,Male,Yes,High,No,No,Yes,No,No
0.35,0.666667,None,No,Medium,Low,Male,Yes,Medium,No,No,Yes,Yes,No
0.95,0.7,None,No,High,Low,Female,Yes,Low,No,Yes,Yes,Yes,No
0.525,0.383333,Medium,No,Low,Low,Male,No,Medium,Yes,No,No,Yes,No
0.1375,0.916667,Medium,Yes,High,Medium,Female,No,Medium,Yes,No,Yes,Yes,No
0.45,0.416667,High,Yes,High,Medium,Female,Yes,Low,No,No,No,No,No
0.5,0.7,None,Yes,Low,Low,Female,Yes,Low,Yes,No,Yes,Yes,No
0.3,0.716667,Low,Yes,Medium,Low,Male,Yes,High,Yes,Yes,No,No,No
0.7625,0.05,High,Yes,Low,Low,Male,No,Medium,No,Yes,Yes,No,No
0.05,0.65,Low,No,Medium,Low,Female,No,Low,No,Yes,No,Yes,No
0.0125,0.516667,Medium,No,Medium,High,Male,Yes,Low,No,Yes,Yes,No,No
0.1125,0.316667,High,Yes,Low,High,Male,Yes,Medium,No,Yes,Yes,No,No
0.7875,0.55,Medium,Yes,High,Medium,Male,No,High,Yes,No,Yes,Yes,No
0.25,0.566667,High,No,Medium,High,Female,Yes,Medium,No,No,No,Yes,No
0.6375,0.616667,Medium,Yes,Medium,Medium,Female,Yes,High,Yes,Yes,No,No,No
0.275,0.383333,Low,No,Medium,High,Male,Yes,High,No,No,Yes,No,No
0.1125,0.366667,Low,No,Low,Medium,Male,No,Medium,Yes,Yes,No,No,No
0.9,0.05,Low,Yes,Medium,Medium,Male,Yes,Medium,No,No,Yes,Yes,No
0.4875,0.716667,Low,Yes,High,Low,Female,Yes,Low,Yes,No,Yes,No,No
0.975,0.133333,Low,No,Medium,High,Male,Yes,Medium,Yes,No,Yes,No,No
0.9875,0.583333,Medium,No,High,Medium,Male,No,High,Yes,No,No,Yes,No
0.5625,0.4,None,Yes,High,Low,Male,Yes,High,Yes,No,Yes,Yes,No
0.7625,0.233333,Low,Yes,High,Medium,Female,Yes,Low,Yes,Yes,Yes,No,No
0.125,0.35,High,No,High,Medium,Male,No,High,Yes,Yes,Yes,No,No
0.9125,0.766667,None,Yes,Low,Low,Male,No,High,No,Yes,Yes,Yes,No
0.9875,0.716667,None,No,High,Low,Male,No,Low,No,No,Yes,No,No
0.6875,0.316667,Low,No,High,Medium,Male,No,Low,Yes,Yes,Yes,Yes,No
0.2625,0.533333,Low,No,Low,Low,Female,No,High,Yes,Yes,No,No,No
1,0.416667,Medium,No,Medium,Low,Male,Yes,Medium,Yes,No,Yes,Yes,No
0.5875,0.883333,Low,No,Medium,Medium,Male,No,Low,Yes,No,No,Yes,No
0.175,0.483333,Low,Yes,High,High,Female,Yes,Medium,No,Yes,Yes,No,No
0.225,0.55,Medium,No,Low,Medium,Male,No,High,Yes,No,Yes,Yes,No
0.825,0.066667,None,No,Low,Low,Male,No,High,No,No,No,Yes,No
0.35,0.216667,High,Yes,Low,High,Female,Yes,Low,Yes,No,Yes,No,No
0.3375,0.133333,None,No,Medium,High,Female,No,Low,No,No,No,Yes,No
0.3875,0.45,High,Yes,Medium,High,Male,No,Medium,No,Yes,Yes,Yes,No
0.6125,0.816667,Medium,Yes,High,High,Male,Yes,Low,No,Yes,Yes,No,No
0.625,0.9,None,Yes,Medium,Medium,Female,No,High,No,Yes,Yes,Yes,No
1,0.95,Medium,Yes,Low,Medium,Male,No,Medium,No,No,Yes,No,No
0.7625,0.683333,Low,Yes,Medium,High,Female,Yes,Low,Yes,No,No,No,No
0.0375,0.766667,High,No,Low,Low,Female,No,Low,No,Yes,No,Yes,No
0.825,0.366667,None,No,Low,High,Male,No,Medium,Yes,No,Yes,Yes,No
0.4875,0.65,High,No,Low,Low,Female,Yes,High,Yes,No,No,No,No
0.9875,0.866667,High,Yes,High,Low,Male,Yes,Medium,Yes,Yes,No,Yes,No
0.8875,0.416667,Low,Yes,Medium,Low,Female,Yes,High,Yes,No,No,No,No
0.7125,0.066667,Medium,Yes,Low,High,Male,Yes,Low,Yes,No,No,No,No
0.7125,0.933333,Low,Yes,High,High,Female,No,Low,Yes,Yes,No,No,No
0.55,0.85,None,Yes,High,High,Male,No,High,Yes,Yes,Yes,Yes,No
0.2625,0.366667,Low,Yes,High,Medium,Male,Yes,Low,Yes,Yes,Yes,Yes,No
0.4375,0.066667,High,Yes,High,High,Female,Yes,Medium,Yes,Yes,No,Yes,No
0.95,0.716667,High,Yes,Medium,Medium,Male,No,Medium,No,No,Yes,No,No
0.7125,0.916667,High,Yes,Medium,Medium,Male,No,Low,No,Yes,No,Yes,No
0.325,0.283333,High,No,Low,High,Female,Yes,Low,Yes,Yes,Yes,No,No
0.0125,0.683333,Low,No,High,High,Male,Yes,Low,No,No,No,Yes,No
0.3875,0.65,Low,Yes,Low,Low,Female,Yes,Low,No,Yes,Yes,No,No
0.5625,0.483333,Medium,Yes,High,Low,Female,Yes,High,No,Yes,No,No,No
0.6,0.883333,Medium,No,High,Low,Female,No,Medium,Yes,Yes,Yes,No,No
0.975,0.083333,Low,Yes,Medium,Medium,Female,No,Medium,No,No,No,No,No
0.525,0.216667,High,Yes,Low,High,Female,Yes,High,No,Yes,No,No,No
0.5875,0.683333,Low,Yes,Medium,Low,Male,Yes,Low,Yes,Yes,No,Yes,No
0.3125,0.383333,None,Yes,High,Medium,Male,Yes,High,No,No,Yes,Yes,No
0.775,0.8,None,Yes,Low,Low,Female,No,Medium,No,No,Yes,No,No
0.85,0.35,Medium,No,Medium,Medium,Male,No,High,Yes,Yes,No,Yes,No
0.6375,0.15,Medium,No,Low,High,Male,No,High,Yes,No,No,Yes,No
0.225,0.266667,Medium,Yes,High,Low,Male,No,Medium,Yes,Yes,Yes,Yes,No
0.1625,0.75,Medium,Yes,Medium,Medium,Female,Yes,Low,No,No,Yes,No,No
0.1,0.416667,Low,Yes,High,Medium,Female,Yes,High,Yes,No,No,No,No
0.925,0.466667,Medium,No,High,Low,Female,Yes,High,No,Yes,Yes,No,No
0.9625,0.316667,None,No,Medium,Medium,Male,Yes,High,No,Yes,Yes,No,No
0.8,0.766667,Low,No,High,High,Male,No,Medium,Yes,No,No,Yes,No
0.625,0.366667,Low,No,Low,Low,Female,No,High,Yes,No,Yes,No,No
0.3875,0.983333,High,Yes,High,Medium,Female,No,Low,No,No,No,No,No
1,0.766667,High,No,Low,Medium,Male,No,Medium,Yes,No,No,No,No
0.3625,0.4,Medium,Yes,Medium,High,Male,No,Medium,Yes,No,No,No,No
0.225,0.133333,Low,Yes,Low,High,Female,Yes,High,Yes,Yes,Yes,Yes,No
0.7125,0.766667,None,No,High,Medium,Male,Yes,Medium,No,Yes,No,Yes,No
0.1875,0.216667,Medium,No,Low,High,Female,Yes,High,No,No,No,Yes,No
0.3875,0.483333,Low,Yes,Low,High,Male,No,High,No,Yes,Yes,Yes,No
0.9875,0.8,None,Yes,Low,Medium,Male,No,Low,No,No,No,Yes,No
0.8875,0.05,Medium,No,Medium,Low,Male,No,Low,Yes,No,No,No,No
0.95,0.283333,Low,No,High,High,Male,No,Medium,No,Yes,Yes,Yes,No
0.8375,0.083333,Low,Yes,Low,High,Male,No,High,No,Yes,No,Yes,No
0.45,0.983333,Low,Yes,Medium,Low,Female,No,High,No,Yes,No,No,No
0.05,0.35,None,No,Medium,Medium,Female,No,Medium,Yes,Yes,Yes,No,No
0.3375,0.883333,Medium,No,High,Low,Male,No,High,No,No,Yes,No,No
0,0.7,None,Yes,Low,High,Male,Yes,Medium,No,Yes,Yes,Yes,No
0.4125,0.216667,Medium,Yes,High,Medium,Female,Yes,High,Yes,Yes,No,Yes,No
0.725,0.483333,High,No,High,High,Female,Yes,High,No,No,No,No,No
0.65,0.266667,High,Yes,High,High,Male,No,Low,No,Yes,Yes,Yes,No
0.3125,0.833333,High,Yes,Low,High,Female,Yes,High,Yes,Yes,Yes,Yes,No
0.175,0.783333,None,Yes,High,Medium,Male,Yes,High,No,No,Yes,Yes,No
0.975,0.816667,Medium,Yes,High,Medium,Male,No,Medium,Yes,No,No,Yes,No
0.8375,0.983333,Low,No,High,High,Female,No,Medium,Yes,Yes,Yes,Yes,No
0.2625,0.5,High,Yes,Low,High,Male,Yes,Low,No,Yes,No,Yes,No
0.7625,0.783333,Medium,Yes,Low,High,Male,Yes,Low,No,Yes,Yes,No,No
0.1125,0.45,Low,Yes,High,Low,Female,Yes,Low,No,No,Yes,No,No
0.025,0.133333,Low,No,High,Medium,Female,No,Medium,Yes,Yes,Yes,No,No
1,0.7,Medium,Yes,Low,Low,Female,No,Medium,No,Yes,Yes,Yes,No
0.775,0.9,Medium,Yes,Low,High,Female,No,Low,No,No,Yes,No,No
0.85,0.616667,High,No,Low,Medium,Male,Yes,Low,Yes,Yes,Yes,No,No
0.7875,0.533333,Low,Yes,High,Low,Female,No,High,Yes,No,Yes,No,No
0,0.4,Medium,Yes,Low,Medium,Male,Yes,Low,Yes,No,No,Yes,No
0.15,0.433333,Low,No,Medium,Medium,Female,No,Medium,Yes,Yes,Yes,No,No
0.575,0.716667,Low,Yes,Medium,Low,Female,No,High,No,No,Yes,No,No
0.8875,0,High,Yes,Low,Low,Male,Yes,High,No,No,No,No,No
0.45,0.85,Medium,Yes,Low,Low,Male,No,Medium,No,Yes,Yes,Yes,No
0.2875,0.033333,Low,Yes,High,Low,Male,No,Medium,No,No,Yes,No,No
0.975,0.25,Medium,Yes,Low,Low,Male,No,High,Yes,Yes,Yes,No,No
0.9,0.75,High,No,High,Low,Female,No,Medium,No,Yes,No,Yes,No
0.7375,0.583333,Medium,Yes,High,Medium,Female,No,Medium,Yes,No,Yes,No,No
0.75,0.45,Medium,Yes,High,Low,Female,No,High,No,No,No,Yes,No
0.75,0.95,None,No,Medium,High,Female,No,Low,Yes,Yes,Yes,No,No
0.2875,0.516667,Medium,Yes,Medium,High,Male,Yes,High,No,No,No,No,No
0.7,0.516667,None,Yes,Low,Low,Male,Yes,High,Yes,No,No,No,No
0.1375,0.033333,High,No,Medium,High,Male,No,High,Yes,No,No,Yes,No
0.775,0.3,Low,Yes,High,Low,Female,Yes,Low,Yes,Yes,No,No,No
0.1375,0.9,High,Yes,Low,High,Female,Yes,Low,No,No,Yes,No,No
0.8625,0.766667,None,No,Low,Medium,Female,Yes,High,Yes,No,Yes,Yes,No
0.7875,0.483333,None,No,Low,High,Male,Yes,Medium,No,Yes,Yes,Yes,No
0.3375,0.933333,Medium,No,Low,Medium,Female,No,Medium,Yes,Yes,Yes,No,No
0.325,0.516667,Medium,No,High,Low,Female,No,Medium,Yes,Yes,Yes,Yes,No
0.9,0.75,High,No,High,Low,Female,No,Medium,No,Yes,No,Yes,No
0.975,0.55,High,Yes,Low,High,Male,Yes,Medium,No,Yes,Yes,Yes,No
0.0625,0.216667,Low,Yes,Low,High,Male,No,Medium,Yes,Yes,Yes,No,No
0.225,0.816667,None,No,Low,Low,Male,No,Low,Yes,No,Yes,No,No
0.5,1,Low,Yes,High,Medium,Male,No,Medium,Yes,Yes,Yes,No,No
0.125,0.3,High,Yes,Medium,High,Male,No,Medium,No,Yes,No,Yes,No
0.0375,0.45,Low,Yes,Low,Low,Male,Yes,Low,No,No,No,Yes,No
0.5375,0.333333,Low,No,High,Low,Male,No,Low,No,No,Yes,Yes,No
0.7875,0.5,Low,No,Medium,High,Male,Yes,Medium,No,Yes,Yes,No,No
0.9375,0.166667,None,Yes,Low,Medium,Male,No,High,No,No,No,Yes,No
0.9625,1,High,Yes,Medium,Low,Female,Yes,Medium,No,No,Yes,No,No
0.5875,0.283333,Low,Yes,Medium,Medium,Female,No,Low,No,Yes,Yes,Yes,No
0.7125,0.616667,None,Yes,Low,Medium,Female,Yes,Low,Yes,No,No,Yes,No
0.0625,0,Medium,No,High,Low,Male,Yes,Low,No,Yes,No,No,No
0.6,0.133333,High,No,High,Medium,Male,Yes,Low,Yes,No,No,Yes,No
0.8,0.233333,None,No,Medium,High,Female,Yes,High,No,No,Yes,No,No
0.3375,0.7,Low,Yes,High,High,Male,No,Medium,No,Yes,Yes,No,No
0.9875,0.233333,High,Yes,Medium,High,Female,Yes,Medium,No,No,No,Yes,No
0.95,0.683333,High,No,Medium,High,Female,No,High,No,Yes,Yes,No,No
0.2625,0.116667,High,Yes,High,Medium,Female,No,High,No,Yes,No,Yes,No
0,1,High,No,Medium,Low,Male,Yes,High,Yes,No,No,Yes,No
0.4875,0.333333,Medium,No,High,Medium,Male,Yes,Low,No,Yes,Yes,Yes,No
0.8875,0.566667,Medium,No,High,Low,Male,No,Low,No,Yes,Yes,No,No
0.8625,0.483333,Medium,Yes,High,Medium,Female,Yes,High,Yes,Yes,No,Yes,No
0.025,0.55,Medium,Yes,Medium,Low,Male,No,Medium,No,Yes,Yes,No,No
0.275,0.25,High,Yes,Low,Medium,Female,No,Medium,No,No,No,Yes,No
0.5625,0.3,None,No,Low,High,Female,Yes,High,Yes,No,Yes,Yes,No
0.6875,0.266667,Medium,No,Medium,High,Female,Yes,High,No,Yes,No,No,No
0.4875,0.2,Medium,Yes,Medium,Medium,Male,No,Medium,No,No,Yes,Yes,No
0.4625,0.566667,Medium,Yes,Medium,High,Male,Yes,Low,No,No,No,No,No
0.7,0.116667,None,No,Low,High,Male,No,High,Yes,Yes,No,No,No
0.225,0.633333,None,Yes,Low,Medium,Female,Yes,Low,Yes,Yes,Yes,No,No
0.325,0.45,High,No,High,Medium,Female,Yes,Low,Yes,Yes,Yes,Yes,No
0.6,1,None,Yes,High,Low,Female,Yes,Medium,No,No,No,Yes,No
0.5,0.566667,None,No,Medium,Medium,Male,Yes,Medium,Yes,No,No,Yes,No
0.85,0.683333,High,Yes,Low,Medium,Male,No,Low,Yes,Yes,Yes,Yes,No
0.1,0.516667,High,No,Medium,Low,Male,No,Low,Yes,No,Yes,No,No
0.2375,0.283333,Medium,No,Low,Medium,Female,No,Medium,Yes,Yes,Yes,No,No
0.45,0.416667,Medium,Yes,Medium,High,Female,Yes,High,No,No,Yes,Yes,No
0.65,0.766667,Low,Yes,High,High,Female,Yes,High,Yes,No,No,Yes,No
0.5375,0.383333,Medium,No,Low,High,Female,Yes,Medium,No,Yes,No,No,No
0.8,0.166667,High,No,Low,High,Female,No,Low,Yes,Yes,Yes,Yes,No
0.3625,0.883333,High,No,Low,Medium,Female,No,High,No,No,No,Yes,No
0.1625,0.75,Medium,Yes,Medium,Medium,Female,Yes,Low,No,No,Yes,No,No
0.2,0.633333,Medium,Yes,High,High,Male,No,Low,Yes,Yes,No,Yes,No
0.425,0.95,Medium,Yes,High,Medium,Male,No,Medium,Yes,No,No,No,No
0.0375,0.983333,None,Yes,Low,High,Female,No,Medium,No,Yes,No,No,No
0.9875,0.05,Medium,Yes,High,High,Male,No,Low,No,No,Yes,No,No
0.6125,0.816667,None,Yes,High,Medium,Female,No,Low,No,Yes,Yes,Yes,No
0.8625,0.983333,Medium,Yes,Medium,Medium,Female,No,Medium,Yes,Yes,Yes,No,No
0.3875,0.966667,Medium,Yes,High,Medium,Female,Yes,Medium,No,Yes,Yes,No,No
0.5125,0.183333,None,Yes,Medium,High,Female,Yes,High,Yes,No,Yes,No,No
0.0875,0.733333,None,No,High,High,Female,No,Medium,No,No,Yes,No,No
0.5375,0.066667,Low,No,Medium,Low,Male,No,Low,No,Yes,Yes,No,No
0.8875,0.866667,High,Yes,High,High,Male,Yes,Medium,No,Yes,No,No,No
1,0.2,None,No,Medium,High,Female,No,Low,Yes,Yes,Yes,Yes,No
0.8625,0.65,Medium,Yes,Low,Low,Male,Yes,Low,Yes,Yes,Yes,No,No
0.9625,0.916667,High,No,High,Medium,Female,Yes,High,No,No,No,No,No
0.3,0.983333,Low,No,Medium,High,Female,Yes,Low,Yes,No,Yes,No,No
0.95,0.733333,Medium,No,High,Medium,Male,No,High,Yes,No,Yes,No,No
0.2125,0.183333,None,Yes,Medium,High,Female,Yes,Medium,No,No,Yes,Yes,No
0.6125,0.433333,Low,No,High,Low,Male,No,Medium,No,Yes,Yes,Yes,No
0,0.2,Low,No,Low,Low,Male,Yes,High,Yes,Yes,Yes,Yes,No
0.4125,0.116667,Low,Yes,Low,Medium,Female,Yes,Low,No,No,Yes,Yes,No
0.875,0.833333,None,Yes,Low,Low,Female,Yes,High,Yes,No,No,No,No
0.9375,0.4,Medium,Yes,Low,Medium,Female,No,Low,Yes,Yes,Yes,No,No
0.75,0.483333,Low,Yes,Medium,High,Female,Yes,High,Yes,Yes,Yes,Yes,No
0.25,0.116667,High,No,Medium,Low,Female,No,Low,Yes,No,No,No,No
0.85,0.433333,Low,Yes,Medium,Low,Male,No,Medium,No,Yes,Yes,Yes,No
0.975,0.5,Low,Yes,Medium,Low,Female,No,Low,Yes,Yes,Yes,Yes,No
0.0625,0.966667,Low,No,High,Medium,Female,Yes,High,No,No,No,Yes,No
0.1875,0.866667,Low,No,Medium,High,Female,No,Medium,Yes,Yes,Yes,No,No
1,0.783333,High,Yes,Low,Medium,Male,No,Medium,No,No,No,Yes,No
0.4,0.716667,High,Yes,Low,High,Female,No,High,No,Yes,No,Yes,No
0.4375,0.016667,None,Yes,Low,Medium,Male,Yes,High,Yes,No,Yes,No,No
0.1375,0.916667,High,Yes,Medium,Low,Male,No,High,Yes,No,Yes,Yes,No
0.65,0.35,High,No,High,High,Male,Yes,Medium,Yes,Yes,No,Yes,No
0.2,0.966667,High,Yes,Low,Medium,Female,Yes,Medium,No,No,Yes,No,No
0.0375,0.216667,High,No,Medium,Low,Female,No,Medium,Yes,Yes,No,No,No
0.1625,0.916667,High,No,High,Medium,Female,No,Low,Yes,No,No,Yes,No
0.2125,0.466667,High,No,Low,Low,Male,Yes,Low,No,Yes,Yes,Yes,No
0.2,0.916667,None,Yes,High,Low,Male,Yes,High,No,No,No,Yes,No
0.8875,0.166667,High,No,High,Low,Female,Yes,Low,Yes,Yes,No,No,No
0.225,0.766667,None,Yes,High,High,Male,No,High,Yes,No,Yes,No,No
0.95,0.65,Low,No,High,High,Male,No,Medium,Yes,Yes,Yes,Yes,No
0.9125,0.55,High,No,Low,High,Female,Yes,Medium,Yes,No,Yes,No,No
0.6375,0.4,Low,Yes,Low,High,Male,Yes,High,Yes,Yes,No,No,No
0.1625,0.683333,None,No,Low,Medium,Male,Yes,Low,No,Yes,No,Yes,No
0.175,0.3,Medium,No,Low,Medium,Female,No,Low,Yes,Yes,Yes,Yes,No
0.7125,0.5,Medium,Yes,Medium,Low,Male,Yes,Medium,No,No,No,No,No
0.7125,0.25,High,Yes,Low,High,Female,Yes,Medium,Yes,Yes,No,Yes,No
0.4875,0.716667,Low,Yes,High,Low,Female,Yes,Low,Yes,No,Yes,No,No
0.2375,0.5,High,No,Low,Low,Male,Yes,Low,No,Yes,No,No,No
0.175,0.333333,High,No,High,Low,Female,Yes,Medium,Yes,Yes,Yes,No,No
0.675,0.266667,High,No,Medium,Medium,Male,Yes,Low,Yes,Yes,Yes,No,No
0.7625,0.616667,Medium,No,High,High,Male,No,High,No,Yes,No,Yes,No
0.6125,0.766667,None,Yes,Low,High,Male,Yes,Medium,No,No,No,Yes,No
0.975,0.083333,Low,Yes,Medium,Medium,Female,No,Medium,No,No,No,No,No
0.9125,0.933333,None,No,Low,Medium,Male,No,High,No,Yes,Yes,Yes,No
0.1375,0.583333,None,No,Low,Medium,Male,No,Medium,No,No,No,No,No
0.6625,0.55,Low,No,Medium,Medium,Male,Yes,Medium,No,Yes,Yes,Yes,No
0.2125,0.616667,Low,No,Medium,Low,Female,Yes,High,Yes,No,Yes,Yes,No
0.375,0.25,Medium,No,Medium,Low,Female,No,Medium,Yes,Yes,No,Yes,No
0.25,0.716667,None,No,Medium,High,Male,Yes,Low,Yes,No,No,Yes,No
0.3125,0.816667,Low,Yes,Low,Low,Male,No,High,No,No,Yes,No,No
0.6375,0.2,None,No,Medium,Medium,Female,Yes,Low,No,Yes,Yes,No,No
0.0625,0.45,Medium,Yes,Low,High,Female,Yes,Low,No,Yes,No,No,No
0.675,0.383333,Low,No,High,Low,Female,No,High,No,No,No,No,No
0.375,0.733333,Low,No,High,High,Male,Yes,Medium,No,Yes,No,Yes,No
1,0.783333,High,Yes,Low,Medium,Male,No,Medium,No,No,No,Yes,No
0.475,0.233333,Medium,Yes,Low,Medium,Male,Yes,High,Yes,Yes,Yes,No,No
0.1625,0.9,Medium,No,Low,Medium,Male,No,Medium,No,Yes,No,Yes,No
0.4125,0.516667,Medium,No,Medium,Low,Male,Yes,Medium,Yes,Yes,No,Yes,No
0.45,0.116667,Medium,No,Medium,High,Male,No,Medium,Yes,No,No,No,No
0.2625,0.45,Low,Yes,Low,Low,Male,Yes,High,No,No,Yes,Yes,No
0.0125,0.3,None,Yes,High,High,Male,Yes,High,No,Yes,No,Yes,No
0.1875,0.466667,Medium,Yes,High,Medium,Male,No,Low,Yes,No,Yes,No,No
0.5,0.633333,High,No,High,Low,Female,No,Low,Yes,Yes,Yes,Yes,No
0.3125,0.516667,Medium,Yes,Low,Medium,Female,Yes,Low,Yes,Yes,Yes,No,No
0.5125,0.183333,None,Yes,Medium,High,Female,Yes,High,Yes,No,Yes,No,No
0.2,0.316667,Low,Yes,Medium,Low,Female,Yes,Medium,No,No,No,No,No
0.9875,0.033333,Medium,Yes,Low,Low,Female,No,Low,No,Yes,No,Yes,No
0.6375,0.733333,Low,No,Medium,Low,Male,No,Low,Yes,Yes,Yes,No,No
0.3125,0.416667,High,No,Low,High,Male,No,Medium,Yes,No,No,Yes,No
0.3625,0.083333,Medium,No,High,Medium,Female,No,Low,Yes,Yes,Yes,Yes,No
0.725,0.416667,High,Yes,High,Medium,Female,Yes,Medium,Yes,No,No,Yes,No
0.225,0.416667,High,Yes,Medium,High,Male,Yes,Medium,No,No,Yes,No,No
0.05,0.716667,Low,No,Low,High,Male,No,Medium,No,Yes,Yes,Yes,No
0.6625,0.95,Low,Yes,Low,Low,Male,Yes,Medium,No,No,Yes,No,No
0.7875,0.65,None,No,High,Low,Male,Yes,Low,Yes,No,No,No,No
0.8625,0.233333,None,Yes,Low,High,Female,No,Low,No,Yes,Yes,No,No
0.6,0.1,Medium,No,Low,Low,Male,No,Medium,No,Yes,No,Yes,No
0.2,0.133333,Medium,No,Low,High,Female,Yes,Low,Yes,Yes,No,No,No
0.7375,0.466667,Low,Yes,Medium,Medium,Male,Yes,Medium,No,No,Yes,No,No
0.8375,0.35,None,No,Low,Low,Male,No,Low,Yes,No,No,Yes,No
0.0125,0.85,Low,Yes,Low,High,Female,No,High,No,Yes,No,No,No
0.8,0.366667,High,Yes,Low,Low,Male,No,High,Yes,No,Yes,Yes,No
0.775,0.35,None,No,Medium,Medium,Male,Yes,Low,No,No,Yes,No,No
0.5625,0.466667,Low,Yes,High,High,Male,Yes,Medium,Yes,No,Yes,Yes,No
0.0375,0.3,None,No,Low,High,Female,Yes,Medium,No,No,No,No,No
0.625,0.95,Medium,No,Medium,High,Female,No,High,No,Yes,Yes,Yes,No
0.5625,0.716667,Low,No,High,Low,Female,Yes,High,No,Yes,No,No,No
0.75,0.283333,High,No,Medium,Medium,Female,Yes,High,No,No,No,Yes,No
0.375,0.916667,Low,No,Medium,High,Male,No,Low,No,No,Yes,Yes,No
0.0375,0.416667,High,No,High,Medium,Male,Yes,High,Yes,Yes,Yes,Yes,No
0.3125,0.016667,None,Yes,Low,Medium,Male,Yes,Medium,No,Yes,No,Yes,No
0.7,0.516667,None,Yes,Low,Low,Male,Yes,High,Yes,No,No,No,No
0.5875,0.716667,Medium,No,High,High,Male,Yes,High,Yes,Yes,No,No,No
0.725,0.966667,None,Yes,High,Low,Female,No,Low,No,Yes,Yes,No,No
0.075,0.95,None,Yes,Medium,Medium,Female,Yes,Low,Yes,Yes,Yes,No,No
0.725,0.933333,Low,No,Medium,High,Male,No,Medium,Yes,Yes,No,No,No
0.875,0.866667,None,No,Low,High,Female,No,High,Yes,No,No,Yes,No
0.775,0.266667,Low,Yes,High,Low,Male,No,High,No,Yes,No,Yes,No
0.0625,0.016667,Medium,No,Medium,Medium,Female,Yes,High,Yes,Yes,No,Yes,No
0.5625,0.216667,High,No,High,High,Female,Yes,Low,No,No,Yes,No,No
0.55,0.033333,Medium,No,Low,Medium,Female,Yes,Medium,Yes,No,No,No,No
0.95,0.433333,Medium,Yes,High,Medium,Female,Yes,High,No,No,Yes,No,No
0.95,0.7,None,No,Medium,High,Female,No,Low,No,No,No,No,No
0.85,0.9,High,Yes,Medium,High,Female,No,Medium,No,Yes,Yes,Yes,No
0.15,0.183333,Low,No,Low,Low,Male,Yes,Low,No,No,Yes,Yes,No
0.5,0.616667,Medium,Yes,Medium,Medium,Female,Yes,High,No,Yes,Yes,No,No
0.1875,0.483333,High,No,Low,High,Female,No,Medium,Yes,Yes,No,No,No
0.025,0.816667,Low,Yes,High,High,Male,Yes,Low,Yes,No,No,No,No
0.5625,0.916667,None,Yes,Medium,Low,Male,No,Low,No,No,No,Yes,No
0.3375,0.8,Low,No,High,High,Female,No,Medium,Yes,Yes,No,Yes,No
0.4125,0.683333,High,No,High,Medium,Male,No,Medium,No,No,No,No,No
0.2,0.416667,High,Yes,Medium,Medium,Male,Yes,Low,No,No,Yes,Yes,No
0.6125,0.616667,High,Yes,Low,High,Female,Yes,Medium,Yes,No,Yes,Yes,No
0.05,0.1,High,No,Low,Medium,Male,Yes,High,Yes,Yes,No,Yes,No
0.9,0.033333,Low,No,Low,High,Female,Yes,Low,Yes,No,No,Yes,No
0.3625,0.75,Medium,No,Medium,Low,Female,Yes,High,Yes,Yes,Yes,No,No
1,0.266667,Low,No,Medium,Low,Female,No,Medium,No,No,No,Yes,No
0.575,0.566667,Low,No,High,High,Female,Yes,Medium,Yes,Yes,No,Yes,No
0.1,0.083333,Low,No,High,High,Female,No,Low,Yes,Yes,No,Yes,No
0.4625,0.783333,High,No,Low,Low,Male,Yes,High,Yes,No,Yes,Yes,No
0.7375,0.566667,Low,Yes,Medium,High,Male,Yes,High,No,Yes,No,No,No
0,0.666667,Medium,No,Medium,Low,Male,Yes,High,No,No,No,No,No
0.3375,0.916667,Low,Yes,Low,Medium,Male,Yes,High,Yes,Yes,Yes,No,No
0.2125,0.033333,None,No,Medium,Medium,Female,Yes,Low,No,Yes,Yes,Yes,No
0.6,0.833333,Low,Yes,High,Low,Female,No,Low,No,No,No,No,No
0.8625,0.1,High,No,Low,Medium,Female,Yes,Low,No,Yes,No,Yes,No
0.075,0.783333,High,No,Medium,Medium,Male,Yes,Medium,No,Yes,No,No,No
0.1,0.016667,High,Yes,Low,Medium,Male,Yes,Low,No,Yes,Yes,No,No
0.8375,0.883333,Medium,Yes,High,Low,Female,No,Medium,Yes,No,Yes,Yes,No
0.025,0,Medium,Yes,High,High,Male,Yes,High,No,Yes,No,No,No
0.2875,0.683333,Low,No,Low,Medium,Female,Yes,Medium,No,Yes,No,No,No
0.1125,0,Medium,No,Medium,Low,Female,Yes,Low,Yes,No,No,No,No
0.05,0.866667,Low,Yes,Low,Medium,Female,Yes,Medium,No,Yes,Yes,No,No
0.9125,0.716667,High,No,High,High,Male,Yes,Medium,No,No,No,Yes,No
0.4,0.8,High,No,Low,Low,Female,No,Medium,No,Yes,No,No,No
0.975,0.366667,None,No,High,Medium,Female,No,Low,No,Yes,No,Yes,No
0.825,0.916667,Low,No,Low,High,Female,No,Low,Yes,Yes,No,Yes,No
0.65,0.433333,High,Yes,High,High,Male,No,Low,No,No,No,Yes,No
0.925,0.75,Low,No,Low,Low,Male,Yes,Medium,No,No,Yes,No,No
0.15,0.166667,High,No,Medium,Low,Female,No,Medium,Yes,No,Yes,Yes,No
0.575,0.333333,High,Yes,Medium,Medium,Female,No,High,Yes,Yes,Yes,No,No
0.9375,0.833333,High,No,High,Medium,Male,Yes,Medium,Yes,No,Yes,No,No
0.4125,0.383333,Low,Yes,High,High,Male,Yes,Medium,No,Yes,No,No,No
0.325,0.95,Low,No,Medium,Low,Male,Yes,High,Yes,Yes,Yes,Yes,No
0.025,0.15,High,Yes,High,High,Male,No,Low,Yes,No,Yes,Yes,No
0.3,0,None,No,Low,High,Female,Yes,High,Yes,Yes,No,Yes,No
0.575,1,High,Yes,Medium,Low,Male,No,Medium,No,No,Yes,Yes,No
0.8,0.833333,Medium,Yes,Medium,Low,Female,Yes,High,Yes,No,No,Yes,No
0.425,0.283333,None,Yes,Low,Low,Male,No,Medium,Yes,No,No,No,No
0.4875,0.883333,High,No,Medium,High,Female,Yes,Low,Yes,Yes,No,No,No
0.875,0.95,Low,No,Low,Low,Female,No,High,Yes,Yes,Yes,Yes,No
0.7125,0.233333,None,Yes,Medium,High,Female,Yes,High,No,Yes,No,No,No
0.375,0.166667,High,No,Low,High,Male,Yes,Medium,Yes,Yes,No,Yes,No
0.4,0.866667,None,No,Low,Low,Female,No,Low,Yes,No,No,No,No
0.2375,0.483333,High,Yes,High,High,Female,Yes,Low,Yes,No,No,No,No
0.2625,0.566667,High,No,High,High,Male,Yes,Low,No,Yes,Yes,Yes,No
0.9375,0.033333,None,Yes,Low,High,Female,Yes,Low,No,No,Yes,No,No
0.075,0.75,Medium,No,High,High,Female,Yes,Medium,Yes,Yes,No,Yes,No
0.225,0.8,Low,No,High,High,Male,No,High,No,Yes,Yes,Yes,No
0.825,0.183333,None,Yes,High,Medium,Female,Yes,Medium,Yes,No,Yes,No,No
0.8625,0.233333,None,No,High,Low,Female,No,Low,No,Yes,No,No,No
0.7375,0.483333,High,No,Low,Medium,Male,Yes,Low,No,Yes,No,No,No
0.1125,0.616667,Medium,Yes,Medium,Medium,Female,No,High,No,Yes,Yes,Yes,No
0.375,0.633333,Medium,No,Low,High,Male,Yes,Low,Yes,No,Yes,No,No
0.4,0.733333,High,No,High,Medium,Male,Yes,Medium,Yes,No,No,No,No
0.55,0.966667,Low,No,Low,Medium,Female,Yes,Medium,No,No,Yes,Yes,No
0.65,0.183333,Low,No,High,High,Female,No,Low,Yes,No,Yes,Yes,No
0.425,0.633333,Medium,No,Low,Low,Female,Yes,Medium,Yes,No,Yes,No,No
0.0125,0.683333,High,Yes,Low,Low,Male,Yes,Low,Yes,Yes,No,Yes,No
0.325,0.666667,High,No,Medium,High,Female,Yes,High,No,Yes,Yes,Yes,No
0.85,0.1,None,Yes,High,Medium,Male,Yes,Low,Yes,No,Yes,No,No
0.9375,1,High,No,Low,Low,Female,No,High,Yes,No,Yes,Yes,No
0.3875,0.25,Medium,No,Low,Low,Female,Yes,Low,Yes,Yes,No,No,No
0.55,0.816667,None,No,Low,Medium,Male,No,Low,Yes,Yes,No,No,No
0.7125,0.733333,Medium,No,Medium,Low,Male,No,Low,No,Yes,No,Yes,No
0.4,0.133333,None,No,Low,Medium,Male,Yes,Medium,No,Yes,No,Yes,No
0.15,0.5,Medium,Yes,Medium,Low,Female,No,Medium,Yes,Yes,Yes,No,No
0.3375,0.05,None,Yes,High,High,Female,Yes,Medium,Yes,Yes,No,Yes,No
0.55,0.466667,Low,Yes,Medium,Medium,Male,No,Low,Yes,Yes,Yes,Yes,No
0.8375,0.533333,None,Yes,Low,Low,Male,No,Medium,No,Yes,No,No,No
0.475,0.166667,Low,No,Medium,Low,Male,No,Low,Yes,Yes,Yes,No,No
0.2,0.683333,Low,Yes,Low,High,Female,No,Low,Yes,No,Yes,No,No
0.775,0.983333,Low,No,Medium,Medium,Male,Yes,High,No,No,Yes,No,No
0.5125,0.433333,Medium,No,High,Low,Male,No,Low,Yes,No,Yes,Yes,No
0.875,0.366667,Low,No,Low,Low,Female,Yes,High,Yes,No,Yes,No,No
0.2875,0.166667,High,No,Low,High,Female,No,Medium,Yes,Yes,No,No,No
0.9125,0.833333,High,Yes,Low,Low,Male,Yes,Low,No,No,Yes,Yes,No
0.6375,0.4,Low,No,High,High,Male,Yes,High,Yes,Yes,Yes,Yes,No
0.7375,0.033333,Medium,No,High,Medium,Male,Yes,Medium,No,Yes,No,Yes,No
0.1875,0.55,Medium,Yes,Medium,High,Female,Yes,Medium,No,No,No,Yes,No
0.2875,0,High,Yes,Medium,Medium,Female,Yes,Medium,No,Yes,No,Yes,No
0.375,0.016667,Low,No,Low,Medium,Female,Yes,High,Yes,Yes,Yes,Yes,No
0.8,0.233333,Medium,Yes,Low,Medium,Male,No,Medium,Yes,Yes,Yes,Yes,No
0.15,0.066667,None,Yes,Low,Low,Male,Yes,Medium,No,No,Yes,No,No
0.9625,0.85,Medium,Yes,Medium,Low,Female,Yes,Medium,Yes,Yes,No,Yes,No
0.8875,0.45,Medium,Yes,High,High,Male,Yes,Medium,No,Yes,Yes,No,No
0.125,0.6,None,No,High,Medium,Male,Yes,High,Yes,Yes,Yes,Yes,No
0.325,0.266667,Low,No,High,High,Male,Yes,Medium,Yes,Yes,No,Yes,No
1,0.333333,None,Yes,High,Low,Female,No,Medium,Yes,No,Yes,No,No
0.1375,0.2,High,Yes,High,Low,Female,No,High,Yes,No,Yes,No,No
0,0.933333,High,Yes,High,Medium,Female,Yes,Medium,Yes,Yes,Yes,No,No
0.75,0.15,None,No,Low,Low,Female,No,High,Yes,No,No,No,No
0.5,0.65,None,No,High,High,Male,No,Low,Yes,Yes,Yes,No,No
0.1625,0.85,High,No,Medium,Low,Male,No,Medium,Yes,Yes,No,No,No
0.7375,0.616667,High,Yes,Medium,High,Male,No,Low,No,No,Yes,No,No
0.1375,0.916667,Medium,Yes,High,Medium,Female,No,Medium,Yes,No,Yes,Yes,No
0.2,0.233333,Low,Yes,High,Low,Female,Yes,Medium,Yes,No,No,Yes,No
0.825,0.066667,High,No,Medium,High,Female,No,Medium,No,No,No,No,No
0.475,0.783333,Low,No,Low,High,Female,Yes,Low,Yes,No,No,Yes,No
0.4375,0.833333,High,No,High,Medium,Male,No,High,Yes,Yes,Yes,Yes,No
0,0.233333,Medium,Yes,Medium,Low,Female,Yes,Medium,Yes,No,Yes,No,No
0.75,0.9,Low,Yes,Medium,High,Female,Yes,High,Yes,No,No,No,No
0.475,0.25,Medium,Yes,Medium,Medium,Female,No,Low,Yes,Yes,No,Yes,No
0.975,0.883333,Medium,Yes,High,Medium,Male,No,Low,No,No,No,Yes,No
0.0375,0.65,Low,Yes,Low,High,Female,Yes,Medium,Yes,No,No,No,No
0.4875,0.516667,Low,No,High,Medium,Male,Yes,Medium,Yes,No,No,Yes,No
0.2875,0.083333,High,Yes,Low,Low,Female,Yes,Medium,Yes,No,No,No,No
0.8125,0.25,None,Yes,Medium,Medium,Female,No,Low,No,No,Yes,Yes,No
0.9875,0.7,Medium,No,Low,Low,Male,Yes,Medium,Yes,No,No,Yes,No
1,0.9,None,Yes,Medium,High,Female,No,Medium,No,No,No,No,No
0.025,0.433333,Medium,Yes,High,Medium,Male,Yes,Low,No,No,Yes,No,No
0.8625,0.666667,High,No,High,Medium,Male,No,High,Yes,No,Yes,No,No
0.675,0.033333,Medium,Yes,High,High,Female,Yes,Low,Yes,No,Yes,Yes,No
0.95,0.55,High,Yes,High,High,Female,No,High,No,No,No,Yes,No
0.4625,0,Medium,No,Medium,High,Female,No,High,Yes,No,No,No,No
0.3875,0.366667,Medium,No,Low,High,Female,No,Low,No,Yes,No,No,No
0.2375,0.483333,Low,No,High,Low,Female,No,Medium,Yes,Yes,No,Yes,No
0.95,0.216667,None,No,High,High,Male,Yes,Low,Yes,Yes,Yes,No,No
0.8375,0.2,Low,No,Low,Medium,Female,Yes,Medium,No,Yes,No,Yes,No
0.3125,0.85,High,No,High,Medium,Female,Yes,High,Yes,Yes,Yes,No,No
0.875,0.416667,Medium,Yes,High,High,Female,No,Low,Yes,Yes,No,Yes,No
0.5875,0.783333,Low,No,High,Low,Male,Yes,Low,No,No,Yes,Yes,No
0.3625,0.716667,High,Yes,Low,High,Female,Yes,High,No,Yes,Yes,No,No
0.7,0.533333,Medium,No,High,High,Male,No,Low,Yes,No,Yes,Yes,No
0.35,0.416667,Low,No,High,Low,Male,No,Medium,No,Yes,No,No,No
0.7375,0.566667,Low,Yes,Medium,High,Male,Yes,High,No,Yes,No,No,No
0.1125,0.266667,High,No,Low,Medium,Male,No,Low,Yes,No,No,No,No
0.1,0.183333,Low,Yes,Medium,High,Female,Yes,Low,No,No,Yes,Yes,No
0.0125,0.216667,Low,No,Low,Low,Female,No,High,Yes,Yes,No,Yes,No
0.0125,0.583333,None,Yes,High,High,Male,Yes,Low,No,Yes,No,Yes,No
0.9125,0.45,Medium,Yes,Medium,Low,Female,No,High,Yes,Yes,No,No,No
0.0375,0.75,None,Yes,Low,High,Male,No,High,Yes,No,Yes,No,No
0.625,0.466667,Low,No,Low,High,Male,No,Low,Yes,Yes,Yes,No,No
0.375,0.233333,Low,Yes,Low,Low,Female,No,High,Yes,Yes,No,No,No
0.0375,0.233333,Medium,No,Low,Medium,Male,No,Low,No,Yes,Yes,Yes,No
1,0.7,None,No,Low,High,Male,No,Low,Yes,Yes,Yes,Yes,No
0.501778,0.133333,Low,No,High,High,Male,Yes,Low,Yes,No,No,Yes,No
0.45,0.866667,None,Yes,High,Low,Female,Yes,Medium,No,Yes,No,No,No
0.4625,0.233333,Medium,No,Low,Medium,Male,No,Low,Yes,No,No,Yes,No
0.8,0.6,Medium,Yes,Medium,High,Male,No,Medium,Yes,No,No,Yes,No
0.475,0.816667,Low,Yes,Medium,Medium,Female,Yes,Low,Yes,Yes,No,No,No
0.025,0.266667,High,No,Low,Medium,Male,No,Medium,No,No,No,Yes,No
0.3375,0.333333,None,No,High,Low,Male,No,Low,No,Yes,No,Yes,No
0.3125,0.283333,None,Yes,High,Low,Female,No,High,No,No,No,Yes,No
0.0625,0.65,Low,Yes,Medium,Medium,Female,No,High,Yes,No,No,Yes,No
0.9125,0.466667,Low,No,Medium,Medium,Male,No,Low,No,Yes,No,No,No
0.5625,0.4,None,Yes,High,Low,Male,Yes,High,Yes,No,Yes,Yes,No
0.525,0.75,Low,Yes,Medium,High,Male,Yes,High,Yes,No,No,No,No
0.3375,0.05,None,Yes,High,High,Female,Yes,Medium,Yes,Yes,No,Yes,No
0.45,0.65,None,Yes,Low,High,Male,Yes,High,No,No,No,Yes,No
0.45,0.366667,None,Yes,Medium,Low,Male,Yes,Low,Yes,Yes,No,Yes,No
0,0.683333,None,Yes,Medium,Low,Female,No,High,No,No,No,Yes,No
0.3,0.716667,Low,Yes,Medium,Low,Male,Yes,High,Yes,Yes,No,No,No
0.775,0.016667,Low,Yes,High,Medium,Male,No,Low,Yes,Yes,No,Yes,No
0.5375,0.066667,Low,No,Medium,Low,Male,No,Low,No,Yes,Yes,No,No
0.0625,0.45,Medium,Yes,Medium,Medium,Male,Yes,High,No,No,Yes,Yes,No
0.725,0.366667,None,No,High,Medium,Male,Yes,Low,Yes,No,No,No,No
0.0125,0.033333,Medium,Yes,High,High,Male,No,High,Yes,No,No,No,No
0.8875,0.166667,None,Yes,Medium,High,Female,Yes,High,No,Yes,Yes,No,No
0.7125,0.116667,High,No,Low,Low,Female,Yes,High,No,Yes,No,Yes,No
0.4375,0.316667,High,No,Medium,High,Male,No,Low,No,Yes,No,No,No
0.6125,0.133333,Medium,Yes,High,High,Female,No,Low,Yes,No,No,No,No
0.3875,0.683333,Low,No,Low,Medium,Female,Yes,High,No,No,No,Yes,No
0.25,0.583333,None,Yes,Medium,Low,Male,Yes,High,Yes,No,Yes,Yes,No
0.501778,0.383333,None,No,High,High,Male,No,Medium,Yes,No,No,No,No
0.55,0.1,None,Yes,Medium,Medium,Female,Yes,Low,Yes,No,Yes,No,No
0.95,0.566667,High,No,High,High,Female,Yes,Medium,Yes,Yes,No,Yes,No
0.1625,0.9,Low,No,Low,High,Female,No,High,No,Yes,Yes,Yes,No
0.075,0.283333,Medium,Yes,Low,High,Male,No,High,No,No,No,Yes,No
0.1125,0.633333,Low,No,High,High,Female,Yes,Low,Yes,No,Yes,Yes,No
0.775,0.4,Medium,No,Low,Low,Male,Yes,High,Yes,No,No,No,No
0.6125,0.8,Low,No,High,Medium,Female,No,Medium,Yes,Yes,Yes,No,No
0.7875,0.383333,Medium,No,Low,High,Female,No,Medium,No,No,No,Yes,No
0.2,1,Low,Yes,Low,Low,Female,No,High,No,Yes,No,No,No
0.7375,0.716667,None,No,Medium,Low,Male,No,High,No,No,No,No,No
0.725,0.9,None,No,High,Medium,Female,Yes,Medium,No,Yes,Yes,No,No
0,0.333333,Medium,Yes,Medium,High,Male,Yes,Medium,Yes,No,Yes,No,No
0.3875,0.4,High,No,High,Medium,Male,Yes,High,No,Yes,No,Yes,No
0.0125,1,None,Yes,Medium,Low,Female,Yes,Low,Yes,No,No,No,No
0.7625,0.766667,Low,Yes,Low,High,Male,Yes,Low,Yes,Yes,Yes,No,No
0.675,0.95,Low,No,Medium,Medium,Male,No,Medium,No,No,No,No,No
0.7625,0.033333,Medium,No,High,Low,Female,Yes,High,Yes,No,No,No,No
0.375,0.7,Low,Yes,High,Low,Female,No,High,Yes,Yes,Yes,Yes,No
0.975,0.95,High,Yes,High,High,Male,No,Low,No,No,No,Yes,No
0.8375,0.666667,Low,No,Low,High,Male,No,Low,Yes,No,No,No,No
0.125,0.433333,Low,Yes,Medium,High,Female,No,High,No,No,No,No,No
0.725,0.116667,Low,No,Low,Low,Female,No,High,No,Yes,Yes,No,No
0.075,0.766667,Medium,No,Low,Medium,Female,Yes,Medium,Yes,Yes,No,Yes,No
0.6125,0.066667,Medium,Yes,Low,High,Female,No,Low,No,Yes,No,No,No
0.3875,0.966667,Low,Yes,Medium,Medium,Female,Yes,Medium,No,No,No,Yes,No
0.5125,0.416667,Low,No,High,High,Female,Yes,High,Yes,Yes,Yes,Yes,No
0.6125,0.883333,Low,No,Medium,High,Female,No,Low,Yes,Yes,Yes,Yes,No
0.1,0.416667,Low,Yes,High,Medium,Female,Yes,High,Yes,No,No,No,No
0.65,0.966667,High,No,Medium,Low,Male,Yes,Low,No,No,No,Yes,No
0.5125,0.183333,Medium,Yes,Medium,High,Male,Yes,Medium,Yes,No,Yes,Yes,No
0.825,0.066667,High,No,Medium,High,Female,No,Medium,No,No,No,No,No
0.025,0.933333,Medium,Yes,High,Medium,Female,No,High,Yes,Yes,Yes,No,No
0.875,0.8,High,Yes,High,High,Female,Yes,Low,Yes,Yes,No,No,No
0.1625,0.416667,None,No,Medium,High,Female,Yes,High,No,Yes,No,Yes,No
0.7625,0.266667,None,Yes,Low,High,Female,No,Low,No,Yes,Yes,No,No
0.7375,0.5,None,Yes,Low,Low,Male,No,Medium,Yes,Yes,No,Yes,No
0.475,0,Low,Yes,Low,High,Male,No,Low,Yes,Yes,No,No,No
0.9375,0.3,High,Yes,High,Low,Male,No,Medium,Yes,No,Yes,Yes,No
0.375,0.1,Low,Yes,High,Low,Male,No,High,No,Yes,Yes,No,No
0.175,0.866667,High,No,Medium,Low,Female,No,Low,No,No,Yes,No,No
0.1875,0.85,High,Yes,High,Medium,Male,No,Medium,No,No,Yes,No,No
0.1875,0.216667,Low,Yes,Low,Low,Male,No,Medium,No,Yes,No,Yes,No
0.15,0.316667,Medium,Yes,Medium,Medium,Female,Yes,High,No,Yes,No,Yes,No
0.6125,0.35,Low,Yes,High,High,Female,No,High,No,No,Yes,Yes,No
0.3,0.7,High,Yes,Low,High,Female,Yes,High,Yes,No,No,Yes,No
0.925,0.05,None,No,Low,Medium,Male,Yes,Medium,No,No,No,No,No
0.95,0.8,Medium,No,Low,Medium,Male,No,High,Yes,Yes,Yes,Yes,No
1,0.666667,Low,No,High,Low,Male,No,Medium,No,Yes,Yes,Yes,No
0.275,0.683333,Medium,No,High,High,Male,No,Medium,Yes,Yes,No,No,No
0.125,0.466667,Low,No,High,High,Female,Yes,High,Yes,No,No,Yes,No
0.825,0.166667,Medium,No,Medium,Low,Female,No,High,Yes,Yes,Yes,Yes,No
0.5875,0.116667,Low,No,High,Medium,Female,Yes,Medium,Yes,No,Yes,No,No
0.025,0.05,Medium,No,Medium,Low,Male,Yes,Low,No,Yes,No,Yes,No
0.7125,0.166667,None,No,Low,Low,Male,No,Low,No,No,No,No,No
0.8375,0.85,Medium,No,Low,Low,Female,No,Medium,Yes,Yes,Yes,No,No
0.0625,0.583333,None,No,High,Medium,Male,No,Medium,Yes,Yes,Yes,Yes,No
0.075,0.666667,None,Yes,Medium,High,Female,No,Medium,No,No,No,No,No
0.775,0.783333,Low,No,Medium,Low,Female,Yes,Low,No,No,Yes,No,No
0.2375,0.4,Low,No,Low,Medium,Male,No,High,Yes,No,No,Yes,No
0.675,0.166667,None,Yes,Medium,Low,Male,No,Medium,Yes,Yes,No,Yes,No
0.3625,0.5,Low,No,Low,High,Female,No,Medium,No,No,Yes,Yes,No
0.8625,0.266667,Low,Yes,Low,High,Male,Yes,Low,No,No,Yes,No,No
0.2375,0.133333,None,No,Medium,High,Male,No,Medium,Yes,No,Yes,No,No
0.175,0.933333,High,No,High,Medium,Female,No,Medium,Yes,No,No,Yes,No
1,0.85,Medium,Yes,Low,Medium,Female,Yes,High,Yes,Yes,No,No,No
0.625,0.95,Medium,Yes,High,Medium,Male,No,High,No,Yes,Yes,Yes,No
0.9375,0.033333,None,No,Low,Low,Female,No,Low,No,Yes,No,No,No
0.5875,0.216667,Medium,No,Medium,Medium,Female,No,High,Yes,Yes,No,No,No
0.05,0.933333,High,Yes,High,Medium,Female,Yes,Low,No,No,No,Yes,No
0.4,0.833333,Low,Yes,Medium,Low,Female,Yes,Low,No,Yes,Yes,No,No
0,0.083333,Low,No,Low,Medium,Female,No,Medium,No,No,Yes,Yes,No
0.3,0.483333,Medium,Yes,Low,High,Female,No,Medium,Yes,No,Yes,Yes,No
0.4625,0.266667,None,No,Low,High,Male,Yes,Low,No,No,Yes,No,No
0.95,0.3,Medium,Yes,Low,Medium,Male,No,Low,No,No,No,Yes,No
0.4125,0.35,None,Yes,High,Medium,Male,Yes,Medium,Yes,No,No,Yes,No
0.3,0.766667,High,Yes,Medium,High,Female,No,Low,Yes,Yes,Yes,No,No
0.65,1,None,No,Low,Medium,Female,Yes,High,No,No,No,No,No
0.9375,0.333333,Low,No,High,Medium,Male,Yes,Medium,No,No,No,Yes,No
0.2,0.133333,High,No,High,High,Male,No,High,Yes,No,No,No,No
0.4375,0.016667,None,Yes,Low,Medium,Male,Yes,High,Yes,No,Yes,No,No
0.225,0.633333,None,Yes,Low,Medium,Female,Yes,Low,Yes,Yes,Yes,No,No
0.175,0,Medium,Yes,Low,Medium,Male,Yes,High,Yes,Yes,Yes,Yes,No
0.3375,0.133333,Low,Yes,High,Low,Female,No,Medium,No,No,No,Yes,No
0.85,0.75,Medium,Yes,Low,Low,Female,Yes,Medium,No,No,No,Yes,No
0.9375,0.05,Medium,Yes,High,Low,Female,Yes,Low,No,No,No,No,No
0.2875,0.533333,Medium,Yes,Medium,Medium,Female,Yes,High,No,Yes,Yes,No,No
1,0.683333,Low,No,Medium,Low,Male,No,Medium,Yes,Yes,No,No,No
0.4875,0,None,No,Low,Medium,Male,No,Low,No,No,No,No,No
0.275,0.75,Medium,No,High,Low,Male,No,High,Yes,Yes,No,Yes,No
0.975,1,Low,Yes,Medium,Medium,Male,No,High,Yes,No,No,No,No
0.5625,0.4,High,No,Medium,High,Female,No,High,Yes,Yes,Yes,Yes,No
0.425,0.283333,High,No,Low,Low,Female,Yes,Low,No,No,Yes,No,No
1,0.933333,None,No,Medium,Medium,Female,Yes,Low,No,No,Yes,Yes,No
0.575,0.033333,None,Yes,High,Low,Male,No,Medium,Yes,Yes,Yes,Yes,No
0.2625,0.833333,High,No,Medium,Low,Female,Yes,Low,Yes,No,Yes,No,No
0.225,0.433333,High,No,High,Medium,Female,Yes,Low,No,Yes,No,Yes,No
1,0.65,Low,No,High,Medium,Female,No,Medium,Yes,Yes,Yes,No,No
0.3,0.966667,None,Yes,Low,High,Male,No,Medium,Yes,No,Yes,Yes,No
0.125,0.883333,Low,No,High,High,Female,No,Low,Yes,No,No,No,No
0.0375,0.683333,High,No,Medium,Medium,Male,No,Low,Yes,No,No,No,No
0.175,0.883333,Medium,No,Medium,High,Male,No,High,No,No,No,Yes,No
0.2875,0.183333,Low,Yes,Medium,Low,Female,No,Low,Yes,Yes,No,No,No
0.475,0.1,None,Yes,High,Medium,Male,No,High,Yes,Yes,No,Yes,No
0.325,0.4,Low,No,Medium,Low,Female,Yes,Low,No,Yes,No,No,No
0.1125,0.816667,Low,Yes,Medium,High,Female,Yes,High,No,No,Yes,No,No
0.5375,0.75,High,No,Low,Medium,Female,No,High,Yes,No,No,No,No
0.75,0.716667,High,Yes,High,Low,Male,Yes,High,Yes,No,Yes,No,No
0.725,0.883333,Medium,Yes,High,Low,Male,Yes,High,Yes,Yes,No,Yes,No
0.8,0.983333,Medium,Yes,High,High,Male,No,Medium,Yes,No,No,Yes,No
0.775,0.183333,None,Yes,Medium,Low,Male,No,High,No,Yes,Yes,Yes,No
0.9375,0.616667,Medium,Yes,Medium,Low,Female,No,High,Yes,No,Yes,Yes,No
0.6875,0.266667,Low,No,Low,Medium,Female,No,High,Yes,Yes,Yes,Yes,No
0,0.766667,None,No,High,Low,Female,No,High,Yes,No,No,Yes,No
0.075,0.85,Low,No,Medium,Medium,Male,Yes,Medium,No,No,Yes,No,No
0.9875,0.733333,None,Yes,Medium,Medium,Male,No,Medium,Yes,Yes,No,Yes,No
0.95,0.2,Medium,Yes,High,Low,Male,Yes,High,No,No,Yes,No,No
0.425,0.283333,None,Yes,Low,Low,Male,No,Medium,Yes,No,No,No,No
0.9625,0.783333,Low,No,Low,Low,Female,Yes,High,No,Yes,Yes,Yes,No
0.2125,0.1,None,No,Low,Low,Female,Yes,Medium,Yes,No,Yes,Yes,No
0.3375,0.616667,High,No,Medium,Medium,Male,Yes,Low,No,No,No,No,No
0.9125,0.966667,None,No,High,High,Male,Yes,Low,Yes,Yes,Yes,Yes,No
0.675,0.516667,High,No,High,Low,Male,No,Low,No,No,Yes,No,No
0.6875,0.183333,None,No,High,Low,Male,Yes,Medium,No,Yes,No,Yes,No
0,0.866667,Medium,Yes,Medium,Low,Female,Yes,High,No,No,No,No,No
0.7375,0.166667,High,No,Medium,High,Female,No,Low,No,No,Yes,Yes,No
0.675,0.816667,High,No,Low,Medium,Female,Yes,Low,No,No,Yes,Yes,No
0.375,0.8,Medium,No,High,Low,Male,Yes,High,No,No,No,Yes,No
0.075,0.766667,Medium,No,Low,Medium,Female,Yes,Medium,Yes,Yes,No,Yes,No
0.2,0.4,Medium,No,High,High,Male,Yes,High,No,Yes,Yes,No,No
0.3875,0.35,Medium,No,High,High,Male,No,Low,No,No,Yes,No,No
0.55,0.05,Low,No,Medium,High,Female,No,High,No,Yes,Yes,No,No
0.1375,0.2,Low,Yes,Low,High,Male,No,Medium,Yes,Yes,No,Yes,No
0.2625,0.883333,High,No,Low,Low,Female,No,High,No,Yes,No,No,No
0.225,0.233333,Low,No,Low,High,Male,Yes,High,Yes,No,No,Yes,No
0.05,0.766667,Medium,No,Low,High,Female,No,High,No,Yes,Yes,Yes,No
0.4125,0.116667,High,No,High,Medium,Male,Yes,High,Yes,Yes,Yes,Yes,No
0.6,0.116667,Low,Yes,Low,High,Female,No,Low,No,Yes,No,No,No
0.4625,0.45,Medium,Yes,Medium,High,Male,Yes,Low,No,No,Yes,Yes,No
0.95,0.266667,Medium,Yes,Medium,High,Male,Yes,Low,No,Yes,No,Yes,No
0.475,0.883333,None,No,Low,High,Female,No,Medium,Yes,Yes,Yes,Yes,No
0.8375,0.9,None,Yes,Low,Low,Female,Yes,Medium,No,No,Yes,No,No
0.675,0.333333,Medium,Yes,Medium,Medium,Male,Yes,Medium,No,No,No,No,No
0.6,0.516667,Low,Yes,High,High,Female,No,Low,Yes,Yes,Yes,No,No
0.4625,0.083333,Medium,Yes,Low,Medium,Female,Yes,Medium,Yes,Yes,No,No,No
0.8125,0.266667,High,Yes,Medium,Low,Female,Yes,High,No,Yes,No,No,No
0.2625,0.016667,None,Yes,Low,High,Male,No,Medium,Yes,Yes,Yes,Yes,No
0.5,0.166667,Low,Yes,Low,High,Male,No,High,Yes,No,Yes,Yes,No
0.175,0.916667,Medium,No,High,Low,Female,No,Low,No,No,No,No,No
0.275,0.716667,High,Yes,Medium,High,Male,No,Medium,Yes,Yes,Yes,Yes,No
0.375,0.45,None,No,Low,Medium,Female,No,Medium,No,Yes,Yes,Yes,No
0.5,1,Low,Yes,High,Medium,Male,No,Medium,Yes,Yes,Yes,No,No
0.275,0.25,High,Yes,Low,Medium,Female,No,Medium,No,No,No,Yes,No
0.8125,0.133333,Medium,Yes,Medium,High,Male,Yes,Low,Yes,Yes,No,Yes,No
0.3875,0.116667,Medium,No,High,High,Male,No,Low,Yes,Yes,No,No,No
0.425,1,High,Yes,High,Low,Female,Yes,Low,No,Yes,Yes,Yes,No
0.825,0.816667,High,Yes,Low,High,Female,No,Low,Yes,Yes,Yes,No,No
0.025,0.433333,None,No,Medium,Low,Female,No,Medium,Yes,No,No,No,No
0.8875,0.716667,Low,Yes,Medium,High,Male,Yes,Medium,No,No,No,No,No
0.75,0.633333,None,Yes,High,High,Male,No,High,Yes,Yes,No,Yes,No
0.0875,0.783333,Low,No,Medium,Low,Male,Yes,Medium,No,No,Yes,Yes,No
0.375,0.016667,High,No,High,Low,Female,No,Low,Yes,No,No,Yes,No
0.225,0.65,None,No,Medium,High,Male,Yes,Medium,Yes,No,Yes,No,No
0.225,0.35,Medium,No,High,Low,Female,Yes,High,Yes,Yes,No,No,No
0.7875,0.966667,Medium,No,High,Medium,Male,Yes,High,Yes,Yes,No,No,No
0.7375,0.5,High,No,Medium,High,Male,No,Low,No,No,No,Yes,No
0.6625,0.766667,None,Yes,Low,Medium,Female,Yes,High,No,Yes,No,Yes,No
0.925,0.7,High,No,Medium,Low,Female,No,High,No,No,No,Yes,No
0.9625,0.85,None,No,Medium,Low,Male,No,Medium,Yes,Yes,Yes,Yes,No
0.4875,0.066667,High,No,Medium,High,Female,No,High,Yes,No,No,No,No
0.0875,0.883333,Low,Yes,High,Low,Female,No,Medium,No,Yes,Yes,Yes,No
0.6875,0.533333,High,No,Low,High,Male,No,Low,No,Yes,No,Yes,No
0.1625,0.366667,Low,No,Medium,High,Male,No,High,Yes,No,Yes,Yes,No
0.5625,0.283333,Medium,No,Low,High,Male,No,Medium,No,No,No,Yes,No
0.55,0.7,Medium,Yes,High,High,Female,Yes,High,Yes,Yes,No,Yes,No
0.4625,0.083333,None,No,Low,Medium,Male,Yes,Low,No,No,Yes,No,No
0.2,0.366667,Medium,No,High,High,Male,Yes,Low,Yes,Yes,No,Yes,No
0.8625,0.75,None,No,Low,Medium,Male,Yes,Low,No,No,Yes,Yes,No
0.4875,0.083333,High,Yes,High,Low,Male,No,Low,No,Yes,No,No,No
0.4,0.8,High,No,Low,Low,Female,No,Medium,No,Yes,No,No,No
0.1125,0.75,None,No,Low,Medium,Female,Yes,Low,Yes,No,No,No,No
0.8375,0.566667,High,No,Medium,Medium,Female,Yes,Low,No,Yes,Yes,No,No
0.6625,0.183333,Low,Yes,Medium,Low,Male,No,Low,Yes,Yes,No,No,No
0.775,0.55,Medium,Yes,Medium,High,Male,Yes,Medium,No,No,No,Yes,No
0.0625,0.016667,Medium,No,Medium,Medium,Female,Yes,High,Yes,Yes,No,Yes,No
0.3,0.816667,Low,Yes,Low,Low,Female,Yes,Medium,Yes,Yes,Yes,Yes,No
0.4875,0.666667,None,Yes,High,Medium,Male,No,Medium,Yes,No,Yes,No,No
0.1375,0.166667,High,Yes,High,Medium,Female,Yes,High,Yes,Yes,No,Yes,No
0.175,0.7,Low,Yes,Low,Medium,Male,Yes,Medium,Yes,Yes,Yes,No,No
0,0.8,Low,Yes,Low,Low,Female,No,Low,Yes,No,Yes,No,No
0.1625,0.916667,None,Yes,High,Low,Female,No,Low,No,Yes,Yes,No,No
0.975,0.066667,None,Yes,Medium,Medium,Male,No,Medium,Yes,Yes,No,No,No
0.65,0.216667,High,No,Medium,High,Female,No,High,Yes,No,No,No,No
0.475,0.75,None,No,Low,Medium,Female,No,High,No,No,No,No,No
0.7125,0.2,Low,No,Low,Low,Female,Yes,Low,No,No,No,No,No
0.2125,0.133333,Medium,Yes,Medium,Low,Female,Yes,High,No,Yes,Yes,Yes,No
0.9125,0.216667,None,No,Medium,High,Female,Yes,Medium,No,Yes,No,No,No
0.9,0.683333,High,Yes,High,High,Male,No,High,Yes,Yes,Yes,No,No
0.8375,0.566667,Low,Yes,High,Medium,Female,Yes,Low,Yes,No,No,Yes,No
0.0125,0.2,Medium,No,Low,High,Male,Yes,Low,Yes,No,Yes,No,No
0.825,0.766667,High,No,Low,High,Male,Yes,Medium,Yes,No,Yes,No,No
0.8625,0.95,Medium,No,Medium,High,Female,Yes,Low,No,No,No,No,No
0.9625,0.766667,High,Yes,Medium,Low,Female,Yes,High,Yes,No,No,Yes,No
0.425,0.766667,Medium,Yes,Low,Low,Female,No,Low,No,Yes,Yes,No,No
0.2,0.766667,Low,No,Low,Low,Female,No,Low,No,Yes,Yes,Yes,No
0.8,0.15,None,No,Low,High,Female,No,Medium,No,Yes,Yes,Yes,No
0.475,0.883333,Medium,Yes,Low,High,Female,No,Low,Yes,Yes,Yes,No,No
0.925,0.45,High,Yes,Medium,High,Female,No,High,Yes,Yes,Yes,Yes,No
0.9125,0.833333,None,Yes,Low,Medium,Male,No,High,No,No,Yes,Yes,No
0.9125,0.566667,High,No,Medium,High,Male,Yes,Low,Yes,No,No,No,No
0.7375,0.566667,Medium,No,High,High,Female,No,Low,No,Yes,Yes,Yes,No
0.65,0.433333,High,Yes,High,High,Male,No,Low,No,No,No,Yes,No
0.2375,0.4,Low,No,Low,Medium,Male,No,High,Yes,No,No,Yes,No
0.7375,0.333333,Low,Yes,Medium,Medium,Female,Yes,High,Yes,No,Yes,Yes,No
0.5375,0.966667,Medium,No,Low,Medium,Female,Yes,Medium,Yes,No,No,No,No
0.9625,0.016667,Medium,No,Medium,Low,Female,No,Low,Yes,No,No,No,No
0.2875,0.7,None,No,Low,Medium,Female,No,High,No,No,Yes,Yes,No
0.1625,0.3,None,Yes,High,Medium,Male,No,High,Yes,No,No,Yes,No
0.925,0.833333,None,Yes,Low,Medium,Male,No,Low,Yes,Yes,Yes,No,No
0.5375,0.45,High,No,High,Low,Female,Yes,Low,Yes,No,No,Yes,No
0.575,0.65,Medium,Yes,High,Low,Male,Yes,High,Yes,Yes,No,No,No
0.5125,0.533333,Low,No,Medium,Low,Female,Yes,Low,No,Yes,Yes,No,No
1,0.266667,Low,No,Medium,Low,Female,No,Medium,No,No,No,Yes,No
0.225,0.716667,High,No,High,High,Male,Yes,Medium,No,No,No,No,No
0.6125,0.583333,Medium,Yes,High,Low,Female,No,Medium,No,Yes,Yes,No,No
0.5,0.983333,None,Yes,Medium,Low,Female,Yes,High,Yes,No,Yes,No,No
0.5,1,Medium,No,High,Low,Female,Yes,High,Yes,No,No,No,No
0.9125,0.55,Low,No,High,High,Female,No,Low,No,Yes,Yes,No,No
0.0375,0.466667,High,No,Low,Low,Male,Yes,Medium,No,Yes,No,Yes,No
0.5125,0.916667,Low,Yes,Medium,Medium,Female,Yes,High,No,No,No,Yes,No
0.8875,0.4,Medium,No,Low,High,Female,Yes,Medium,Yes,Yes,No,No,No
0.925,0.783333,None,Yes,High,Medium,Male,Yes,Medium,No,No,No,No,No
0,0.983333,High,No,High,Medium,Male,Yes,Low,No,No,Yes,Yes,No
0.4875,0.316667,High,Yes,High,Medium,Female,Yes,Medium,No,No,Yes,No,No
0.0375,0.283333,None,No,High,High,Female,Yes,High,Yes,No,No,No,No
0.6375,0.016667,High,Yes,Low,Low,Male,Yes,Low,No,Yes,No,No,No
0,0.183333,Low,No,High,Low,Female,Yes,Low,Yes,Yes,No,No,No
0.0625,0.366667,High,No,Low,Low,Male,No,Medium,Yes,Yes,Yes,Yes,No
0.875,0.25,None,No,Low,Low,Male,Yes,High,No,Yes,No,Yes,No
0.25,0.633333,Low,No,Medium,Medium,Male,No,High,Yes,Yes,Yes,Yes,No
0.275,0.566667,None,Yes,Low,Low,Male,Yes,High,No,No,Yes,Yes,No
0.275,0.066667,None,Yes,High,High,Male,Yes,High,No,No,Yes,No,No
0.3,0.966667,High,No,Medium,Low,Male,No,Low,No,No,No,No,No
0.5125,0.983333,Low,Yes,High,High,Female,No,High,Yes,Yes,Yes,Yes,No
0.05,0.083333,High,No,Low,High,Female,Yes,Medium,No,No,Yes,No,No
0.725,0.166667,Low,No,Low,Low,Male,No,High,No,Yes,No,No,No
0.5125,0.883333,None,No,High,Medium,Male,Yes,Low,No,No,No,No,No
0.375,0.8,Medium,No,High,Low,Male,Yes,High,No,No,No,Yes,No
0.9375,0.233333,Low,Yes,High,Medium,Female,Yes,High,Yes,Yes,Yes,Yes,No
0.175,0.233333,None,No,Low,Medium,Male,No,Low,No,No,Yes,No,No
0.3,0.216667,Low,No,Medium,High,Female,Yes,Medium,No,Yes,Yes,No,No
0.25,0.633333,Low,No,Medium,Medium,Male,No,High,Yes,Yes,Yes,Yes,No
0.5125,0.916667,Low,Yes,Medium,Medium,Female,Yes,High,No,No,No,Yes,No
0.4375,0.5,Low,No,Low,Low,Male,No,Medium,Yes,No,No,No,No
0.175,0.75,None,No,Medium,Low,Female,Yes,Medium,Yes,No,Yes,Yes,No
0.4375,0.75,Low,Yes,Medium,High,Female,Yes,High,Yes,Yes,Yes,Yes,No
0.9875,0.3,High,Yes,Low,Low,Female,Yes,Medium,No,Yes,No,Yes,No
0.7,0.3,None,Yes,Low,Low,Female,Yes,Medium,Yes,Yes,No,Yes,No
0.45,0.416667,High,Yes,High,Medium,Female,Yes,Low,No,No,No,No,No
0.425,0.2,High,No,High,High,Male,Yes,Low,No,No,Yes,Yes,No
0.7,0.433333,Medium,No,High,Low,Female,No,Low,Yes,No,No,No,No
0.4625,0.066667,Medium,No,Medium,High,Male,Yes,Medium,Yes,No,No,Yes,No
0.4,0.633333,Medium,No,Medium,Medium,Male,Yes,High,No,Yes,No,No,No
0.35,0.283333,None,Yes,Medium,High,Female,Yes,Low,Yes,Yes,Yes,No,No
0.2375,0.283333,Low,Yes,High,High,Female,Yes,Medium,No,No,Yes,No,No
0.8375,0.933333,Medium,No,Medium,High,Male,Yes,Medium,No,No,No,No,No
0.1625,0.483333,Medium,No,Low,Medium,Male,No,Low,Yes,No,Yes,No,No
0.3875,0.716667,None,No,Medium,Low,Male,No,Low,Yes,No,Yes,No,No
0.125,0.495962,Medium,Yes,Low,Low,Male,No,Medium,Yes,Yes,Yes,No,No
0.2125,0.833333,Medium,No,Medium,High,Male,Yes,Medium,Yes,No,No,No,No
0.1375,0.166667,Low,No,Low,Low,Male,No,Medium,No,Yes,Yes,Yes,No
0.425,0.283333,High,No,Low,Low,Female,Yes,Low,No,No,Yes,No,No
0.5375,0.383333,Low,No,High,Medium,Male,Yes,High,No,Yes,Yes,Yes,No
0.8,0.266667,None,Yes,Medium,Medium,Female,No,Low,No,Yes,No,No,No
0.55,0.266667,None,Yes,High,Medium,Female,Yes,Low,No,Yes,Yes,Yes,No
0.55,0.1,High,Yes,Low,Low,Female,Yes,High,Yes,Yes,Yes,No,No
0.2125,0.683333,High,No,High,High,Male,Yes,Low,No,No,Yes,No,No
0.9125,0.633333,None,No,High,High,Female,No,High,No,Yes,Yes,No,No
0.25,0.25,High,Yes,Medium,Medium,Female,Yes,High,No,No,No,No,No
0.6125,0.783333,None,No,Medium,Low,Male,No,Medium,No,No,No,Yes,No
0.5375,0.766667,Medium,Yes,Low,High,Male,Yes,Low,Yes,Yes,No,No,No
0.925,0.45,High,Yes,Medium,High,Female,No,High,Yes,Yes,Yes,Yes,No
0.8875,0.216667,Medium,Yes,High,High,Female,Yes,High,No,No,Yes,Yes,No
0.925,0.783333,None,Yes,High,Medium,Male,Yes,Medium,No,No,No,No,No
0.4,0.8,Low,No,Low,High,Male,Yes,Medium,No,No,No,No,No
0.501778,0.516667,Low,Yes,High,Medium,Female,No,High,No,No,Yes,No,No
0.2625,0.5,High,Yes,Low,High,Male,Yes,Low,No,Yes,No,Yes,No
0.35,0.666667,None,No,Medium,Low,Male,Yes,Medium,No,No,Yes,Yes,No
0.3625,0.516667,None,Yes,Medium,High,Female,No,High,Yes,Yes,Yes,Yes,No
0.9875,0.016667,Medium,Yes,Medium,Medium,Male,Yes,Medium,No,No,Yes,No,No
0.7125,0.45,None,No,High,High,Male,Yes,Medium,Yes,Yes,No,No,No
0.5,0.616667,None,Yes,High,Low,Male,Yes,Low,No,No,No,No,No
0.15,0.283333,Medium,Yes,Medium,High,Female,No,Low,Yes,Yes,No,No,No
0.9125,0.316667,Medium,Yes,Low,Low,Male,Yes,Low,No,No,Yes,Yes,No
0.4375,0.083333,None,No,Medium,Medium,Male,No,Low,No,Yes,No,No,No
0.2375,0.133333,High,Yes,Medium,Medium,Female,Yes,High,No,No,Yes,No,No
0.7375,0,None,No,High,High,Male,Yes,High,No,Yes,Yes,No,No
0.425,0.666667,Medium,No,Medium,Low,Female,Yes,High,No,No,Yes,No,No
0.6375,0.966667,Low,No,Medium,Low,Female,No,Low,No,No,Yes,No,No
0.85,0.416667,Medium,No,High,Medium,Male,Yes,Low,Yes,Yes,Yes,Yes,No
0.5125,0.283333,Medium,No,Medium,Low,Female,No,High,Yes,No,Yes,Yes,No
0.825,0.916667,Low,No,Low,Low,Male,Yes,High,Yes,No,Yes,No,No
0.425,0.816667,Low,No,High,Medium,Male,Yes,Low,Yes,No,Yes,Yes,No
0.45,0.6,Low,No,Medium,Low,Female,Yes,Medium,No,Yes,Yes,No,No
0.825,0.033333,Medium,No,Low,Medium,Male,No,Medium,Yes,Yes,No,No,No
0.7625,0.25,Medium,Yes,High,High,Male,Yes,Medium,No,Yes,Yes,No,No
0.325,0.333333,Medium,Yes,Low,Low,Female,No,High,No,Yes,No,No,No
0.3,0.25,None,Yes,Medium,Low,Male,No,High,Yes,Yes,Yes,No,No
0.375,0.033333,High,Yes,Medium,Low,Male,Yes,Medium,Yes,No,No,No,No
0.125,0,None,Yes,Medium,High,Female,Yes,Low,No,Yes,Yes,No,No
0,0.983333,High,No,High,Medium,Male,Yes,Low,No,No,Yes,Yes,No
0.8,0.183333,High,Yes,Medium,Low,Male,No,Low,No,No,No,Yes,No
0.3625,0.15,Low,Yes,High,Low,Male,No,Medium,Yes,No,No,No,No
0.6125,0.9,None,No,Medium,Medium,Male,Yes,High,Yes,No,Yes,No,No
0.35,0.283333,High,No,High,High,Male,Yes,Low,No,Yes,No,No,No
0.7125,0.083333,Medium,No,Low,High,Male,Yes,Low,Yes,Yes,No,No,No
0.925,0.783333,Medium,Yes,High,High,Female,Yes,Low,No,No,No,Yes,No
0.425,0.9,Low,Yes,Low,High,Male,No,Medium,No,Yes,No,Yes,No
0.7625,0.4,Low,No,High,Medium,Male,Yes,High,No,No,No,No,No
0.85,0.8,None,No,Low,Medium,Male,Yes,Medium,Yes,No,Yes,No,No
0.6625,0.4,Low,Yes,High,Low,Male,No,Medium,No,No,No,No,No
0.825,0.95,Low,No,Medium,High,Male,Yes,Medium,No,No,Yes,No,No
0.3625,0.75,High,No,Low,Medium,Male,Yes,Medium,Yes,No,No,No,No
0.7875,0.8,None,Yes,High,Low,Female,Yes,Medium,Yes,No,No,No,No
0.3,0.233333,None,Yes,Medium,Medium,Female,Yes,Low,No,No,Yes,No,No
0.05,0.383333,Low,No,Medium,Low,Male,Yes,Low,Yes,No,Yes,Yes,No
0.45,0.283333,None,Yes,Medium,Low,Female,Yes,High,Yes,Yes,No,Yes,No
0.5125,0.15,Medium,Yes,Medium,High,Female,No,Medium,Yes,Yes,No,No,No
0.5,0.233333,High,No,Low,Low,Male,Yes,High,No,No,No,Yes,No
0.5125,0.733333,Medium,No,High,Low,Male,No,High,No,No,Yes,No,No
0.625,0.033333,None,Yes,High,Low,Female,No,Low,Yes,No,Yes,Yes,No
0.975,0.633333,Medium,No,Low,Medium,Female,No,Medium,Yes,No,Yes,Yes,No
0.6875,0.266667,Low,No,Low,Medium,Female,No,High,Yes,Yes,Yes,Yes,No
0.8125,0.4,High,No,High,Medium,Male,Yes,Low,Yes,No,No,No,No
0.0875,0.9,None,Yes,Medium,Medium,Male,Yes,High,Yes,No,No,No,No
0.225,0.55,Medium,No,Low,Medium,Male,No,High,Yes,No,Yes,Yes,No
0.375,0.116667,Medium,Yes,Medium,Low,Female,Yes,Medium,No,Yes,No,No,No
0.775,0.266667,Low,Yes,High,Low,Male,No,High,No,Yes,No,Yes,No
0.6625,0.233333,Medium,Yes,High,Low,Male,No,Low,No,No,Yes,No,No
0.85,0.933333,Low,No,Low,Low,Male,No,Medium,No,No,Yes,Yes,No
0.5875,0.866667,Medium,Yes,High,Medium,Male,No,Medium,No,Yes,No,No,No
0.5,0.416667,None,Yes,Low,Medium,Male,Yes,Low,Yes,No,No,No,No
0.7875,0.833333,Low,Yes,High,High,Male,No,High,Yes,No,No,No,No
0.775,0.683333,Low,Yes,Low,Low,Male,Yes,Low,Yes,Yes,Yes,No,No
0.625,0.783333,Low,No,High,Low,Male,No,Low,No,Yes,No,Yes,No
0.0875,0.233333,Medium,Yes,High,Medium,Male,No,Medium,No,No,No,Yes,No
0.15,0.883333,High,Yes,Low,High,Female,Yes,High,Yes,Yes,Yes,Yes,No
0.6125,0.066667,None,Yes,Low,High,Male,Yes,Medium,No,No,No,Yes,No
0.8125,0.966667,High,Yes,High,Low,Female,No,High,Yes,No,Yes,Yes,No
0.4625,0.05,Medium,No,High,Low,Male,No,Medium,No,No,No,No,No
0.95,1,High,No,High,Low,Female,Yes,Low,Yes,Yes,No,Yes,No
0.3375,0.583333,Low,No,Low,Medium,Female,Yes,High,Yes,Yes,Yes,No,No
0.6625,0.283333,High,No,Medium,Low,Male,Yes,High,Yes,Yes,Yes,Yes,No
0.4875,0.116667,Low,Yes,High,Medium,Male,No,High,Yes,Yes,Yes,No,No
0.6625,0.466667,High,No,Medium,High,Female,Yes,Medium,No,Yes,Yes,No,No
0.9,0.033333,Low,No,Low,High,Female,Yes,Low,Yes,No,No,Yes,No
0.025,0.733333,High,Yes,Low,High,Male,Yes,High,Yes,No,Yes,Yes,No
0.775,0.8,High,No,Low,Medium,Female,Yes,High,Yes,No,Yes,No,No
0.3375,0.616667,High,No,Medium,Medium,Male,Yes,Low,No,No,No,No,No
0.475,0.116667,Low,Yes,Low,High,Male,Yes,Low,No,Yes,Yes,No,No
0.7375,0.733333,High,No,Medium,Low,Male,Yes,Medium,Yes,No,No,No,No
0.3,0.833333,High,No,Medium,High,Male,No,Low,No,No,No,No,No
0.35,0.883333,None,Yes,High,Low,Male,No,High,Yes,Yes,Yes,No,No
0,0.783333,High,No,Low,High,Male,Yes,Low,Yes,Yes,Yes,No,No
0.625,0.05,None,No,Low,Low,Female,Yes,High,Yes,Yes,Yes,Yes,No
0.9375,0.55,Medium,No,Medium,High,Male,Yes,High,No,Yes,No,No,No
0.3,0.666667,High,No,Medium,High,Female,Yes,Low,No,No,Yes,Yes,No
0.175,0.166667,Low,Yes,Low,Low,Male,Yes,Medium,No,No,No,Yes,No
0.8875,0.166667,None,Yes,Medium,High,Female,Yes,High,No,Yes,Yes,No,No
0.75,0.15,None,No,Low,Low,Female,No,High,Yes,No,No,No,No
0.2,0.683333,Low,Yes,Low,High,Female,No,Low,Yes,No,Yes,No,No
0.325,0.383333,None,No,Medium,High,Female,No,Low,Yes,Yes,No,Yes,No
0.175,0.7,Low,Yes,Low,Medium,Male,Yes,Medium,Yes,Yes,Yes,No,No
0.1,0.683333,None,Yes,High,High,Male,Yes,Medium,No,Yes,No,No,No
0.8875,1,Low,Yes,High,Low,Male,Yes,Medium,Yes,Yes,Yes,Yes,No
0.1875,0.316667,Low,No,Low,High,Male,No,High,Yes,Yes,No,Yes,No
0.7125,0.783333,Low,Yes,Low,Medium,Female,Yes,High,No,Yes,No,Yes,No
0.975,0.6,Low,No,Low,Low,Female,No,Medium,No,No,Yes,Yes,No
0.6,0.833333,Medium,Yes,Low,Low,Male,No,High,No,No,Yes,Yes,No
0.9,0.416667,None,No,Low,Low,Female,No,High,No,No,Yes,Yes,No
0.85,0.816667,Medium,Yes,Medium,High,Female,No,Medium,No,No,Yes,No,No
0.025,0.5,Medium,No,Low,Medium,Male,Yes,High,Yes,Yes,Yes,No,No
0.7,0.25,None,No,High,High,Female,Yes,Medium,Yes,Yes,No,No,No
0.3,0.216667,None,Yes,High,High,Female,Yes,Medium,No,Yes,Yes,No,No
0.4125,0.45,Low,Yes,Low,High,Female,Yes,Medium,Yes,Yes,Yes,Yes,No
0.025,0.283333,Medium,Yes,Medium,Low,Female,Yes,High,No,No,Yes,Yes,No
0.375,0.1,High,Yes,Medium,Low,Female,Yes,Low,Yes,No,No,Yes,No
0.575,0.533333,Medium,No,Low,Low,Male,No,High,Yes,No,No,Yes,No
0.7375,0.116667,Low,Yes,High,Low,Female,Yes,High,No,No,No,Yes,No
0.4,0.95,High,Yes,Medium,Medium,Male,No,High,Yes,No,No,Yes,No
0.8875,0.333333,Low,No,High,Medium,Female,Yes,Medium,Yes,No,Yes,Yes,No
0.0875,0.483333,Medium,Yes,High,Medium,Male,No,Low,Yes,Yes,No,No,No
0.4875,0.366667,Low,No,High,Medium,Male,Yes,Low,No,Yes,No,No,No
0.9,0.816667,Medium,No,High,Low,Male,Yes,High,No,No,Yes,No,No
0.05,0.016667,Medium,Yes,High,Medium,Female,No,Low,Yes,No,No,No,No
0.2125,0.883333,Medium,No,High,Low,Male,Yes,Medium,No,No,Yes,Yes,No
0.425,0.95,High,No,Low,Medium,Male,No,Medium,Yes,Yes,No,No,No
0.4875,0.083333,None,Yes,Medium,Medium,Female,Yes,Medium,No,No,Yes,Yes,No
0.9375,0.866667,None,Yes,High,Medium,Male,Yes,High,Yes,No,No,Yes,No
0.3125,0.433333,Low,No,High,Low,Female,No,High,No,No,No,No,No
0.4375,0.783333,None,Yes,High,Low,Male,No,High,Yes,Yes,Yes,No,No
0.475,0.483333,None,Yes,Medium,Low,Male,Yes,High,No,No,Yes,No,No
0.2875,0.983333,None,Yes,Low,Low,Male,No,Medium,No,Yes,Yes,Yes,No
0.6,0.05,Medium,Yes,High,Medium,Male,No,High,Yes,Yes,Yes,Yes,No
0.975,0.566667,High,No,Low,High,Male,No,High,Yes,Yes,Yes,No,No
0.275,0.85,Low,Yes,Low,Low,Male,No,High,No,Yes,No,Yes,No
1,0.65,Medium,Yes,High,Medium,Female,No,High,Yes,Yes,No,No,No
0.4375,0.05,Low,No,High,Medium,Male,Yes,High,No,No,Yes,Yes,No
0.175,0.233333,High,No,High,Medium,Female,Yes,Medium,No,No,No,Yes,No
0.7375,0.683333,None,Yes,High,High,Male,No,Low,No,Yes,No,No,No
0.4375,0.233333,Medium,No,High,Low,Male,No,Medium,Yes,No,Yes,Yes,No
0.8,0.366667,Low,No,High,High,Male,No,Medium,Yes,No,Yes,No,No
0.2875,0.3,None,No,Low,Low,Male,Yes,Low,Yes,Yes,No,No,No
0.0625,0.75,Low,No,Low,Low,Male,No,Low,Yes,No,Yes,No,No
0.2,1,Medium,Yes,High,Medium,Female,Yes,Low,Yes,Yes,Yes,Yes,No
0.825,0.433333,High,No,High,Medium,Male,No,High,No,No,No,No,No
0.1875,0.233333,High,Yes,Medium,Low,Male,No,Medium,No,No,Yes,Yes,No
0.05,0.433333,Medium,No,High,Medium,Female,No,Low,No,No,No,No,No
0.65,0.383333,Medium,Yes,High,Medium,Male,Yes,Low,No,Yes,No,Yes,No
0.225,0.033333,Medium,No,Low,Low,Male,Yes,Medium,No,Yes,Yes,No,No
0.5875,0.616667,None,Yes,High,Low,Male,Yes,High,Yes,Yes,Yes,Yes,No
0.325,0.633333,Low,No,High,Low,Female,Yes,Medium,No,No,No,No,No
0.2375,0.016667,Low,Yes,High,Medium,Male,Yes,Medium,No,Yes,Yes,Yes,No
0.95,0.533333,Medium,No,Medium,Low,Female,No,High,Yes,Yes,Yes,No,No
0.6625,0.55,Low,No,Medium,Medium,Male,Yes,Medium,No,Yes,Yes,Yes,No
0.8125,0.516667,High,Yes,High,High,Male,No,Medium,Yes,Yes,No,Yes,No
0.7625,0.833333,Medium,No,Medium,Low,Female,Yes,High,Yes,No,Yes,No,No
0.675,0.233333,Low,Yes,Medium,High,Female,Yes,Low,Yes,Yes,Yes,Yes,No
0.8625,0.25,Medium,Yes,Low,Medium,Male,No,Low,Yes,No,Yes,Yes,No
0.7375,0.216667,Medium,Yes,High,Low,Female,No,Low,Yes,Yes,No,No,No
0.525,0.7,Low,No,High,High,Female,Yes,High,No,Yes,No,No,No
0.1625,0.1,Low,No,Low,Medium,Female,No,Medium,Yes,No,No,Yes,No
0.0875,0.183333,Low,Yes,High,Low,Male,No,Medium,No,Yes,No,Yes,No
0.0625,0.75,Low,Yes,Low,High,Male,No,High,No,No,Yes,No,No
0.9375,0.616667,High,Yes,Medium,Medium,Male,No,Medium,Yes,No,No,No,No
0.9,0.533333,Medium,No,Medium,High,Female,No,Low,Yes,Yes,No,No,No
0.425,0.9,Low,Yes,Low,High,Male,No,Medium,No,Yes,No,Yes,No
0.625,0.8,None,Yes,Medium,Low,Female,Yes,Low,No,Yes,Yes,No,No
0.8375,0.95,Low,Yes,High,Low,Female,Yes,High,No,Yes,Yes,Yes,No
0.7125,0.066667,Medium,No,High,Medium,Male,Yes,High,No,Yes,Yes,No,No
0.8125,0.75,Low,No,Low,Medium,Female,Yes,High,Yes,Yes,No,No,No
0.7375,0.15,None,No,Low,Low,Male,Yes,Low,Yes,No,Yes,No,No
0.1625,0.366667,Low,No,Medium,High,Male,No,High,Yes,No,Yes,Yes,No
0.9125,0.25,High,No,Low,High,Female,No,High,No,No,No,No,No
0.8625,0.5,None,Yes,High,Medium,Male,No,Low,Yes,No,Yes,Yes,No
0.675,0.983333,Medium,Yes,High,High,Female,No,High,No,Yes,No,No,No
0.8375,0.283333,High,No,Medium,High,Male,No,High,No,No,Yes,Yes,No
0.5375,0.8,Medium,Yes,Medium,Low,Female,No,High,No,Yes,Yes,No,No
0.975,0.333333,Low,Yes,Low,Medium,Female,Yes,Low,Yes,Yes,No,Yes,No
0.825,0.816667,High,Yes,Low,High,Female,No,Low,Yes,Yes,Yes,No,No
0.7625,0.4,Low,Yes,Low,Medium,Male,No,Low,Yes,No,No,No,No
0.475,0.766667,Low,No,High,Medium,Male,Yes,Medium,No,Yes,No,No,No
0.5125,0.816667,None,No,Low,Medium,Female,No,Medium,No,No,Yes,Yes,No
0.8375,0.233333,Low,Yes,High,Low,Female,Yes,High,No,Yes,No,No,No
0.175,0.933333,Low,No,Medium,Medium,Female,No,Low,No,No,Yes,No,No
0.7125,0.633333,Low,No,Medium,High,Female,No,Low,Yes,Yes,Yes,Yes,No
0.975,0.333333,Low,No,Medium,Medium,Female,No,High,Yes,No,No,No,No
0.0875,0.216667,None,Yes,Medium,Medium,Male,No,Low,Yes,Yes,No,Yes,No
0.4125,0.733333,Medium,Yes,Low,High,Male,No,Low,No,No,No,No,No
0.175,0.116667,None,No,High,Low,Female,Yes,Low,No,No,Yes,Yes,No
0.8,0.733333,Low,No,High,Medium,Male,Yes,Low,No,No,Yes,No,No
0.2125,0.833333,Medium,No,Low,Low,Male,Yes,High,Yes,No,No,Yes,No
0.725,0.766667,High,No,High,Low,Male,Yes,Low,Yes,No,No,No,No
0.6375,0.5,High,Yes,Medium,High,Male,Yes,Low,No,No,Yes,No,No
0.0125,0.583333,Medium,Yes,Medium,Medium,Male,No,Medium,No,No,No,No,No
0.2,0.633333,Medium,Yes,High,High,Male,No,Low,Yes,Yes,No,Yes,No
0.5,1,Low,Yes,High,Medium,Male,No,Medium,Yes,Yes,Yes,No,No
0.825,0.983333,Low,No,Medium,Medium,Male,No,High,No,Yes,No,No,No
0.975,0.233333,Medium,No,Medium,Medium,Female,Yes,Medium,Yes,Yes,Yes,Yes,No
0.3,0.2,High,No,Low,Medium,Female,Yes,Low,Yes,Yes,No,Yes,No
0.95,0.333333,Medium,Yes,Medium,Medium,Female,No,Medium,No,Yes,No,Yes,No
0.1375,0.5,High,No,High,High,Female,Yes,Medium,No,Yes,No,No,No
0.2625,0.566667,Low,Yes,Medium,Medium,Female,Yes,Medium,Yes,No,Yes,No,No
1,0.333333,None,Yes,Medium,Medium,Female,Yes,Medium,No,Yes,Yes,Yes,No
0.6875,0.35,Medium,No,Low,High,Female,Yes,Low,No,No,No,No,No
0.2125,0.666667,High,No,Low,Low,Male,No,High,No,Yes,Yes,No,No
0.5,0.583333,None,Yes,Medium,High,Female,No,Low,Yes,Yes,Yes,No,No
0.2,0.366667,Medium,No,Low,High,Male,Yes,Medium,Yes,Yes,No,Yes,No
0.575,0.433333,None,No,Low,Medium,Female,No,Medium,Yes,Yes,No,No,No
0.1625,0.733333,High,Yes,Low,Low,Female,No,Low,No,No,No,Yes,No
0.125,0.85,Medium,Yes,High,Low,Female,Yes,Medium,No,Yes,No,Yes,No
0.925,0.266667,High,No,Medium,Medium,Female,Yes,High,No,Yes,No,Yes,No
0.6875,0.116667,High,Yes,High,Low,Male,No,Low,No,No,Yes,Yes,No
0.15,0.683333,Medium,Yes,Low,High,Male,No,Low,No,Yes,Yes,No,No
0.175,0.166667,None,Yes,Medium,Medium,Male,No,High,Yes,Yes,No,Yes,No
0.875,0.8,High,Yes,High,High,Female,Yes,Low,Yes,Yes,No,No,No
0.3125,0.716667,None,Yes,High,High,Male,No,High,Yes,Yes,No,No,No
0.6375,0.616667,Medium,No,Medium,High,Female,No,High,Yes,No,Yes,Yes,No
0.325,0.4,High,No,Medium,Medium,Male,Yes,Medium,Yes,No,Yes,No,No
0.0375,0.516667,None,Yes,High,High,Male,Yes,Low,Yes,Yes,No,No,No
0.15,0.066667,None,Yes,Low,Low,Male,Yes,Medium,No,No,Yes,No,No
0.0375,0.666667,Medium,No,High,Low,Female,Yes,Low,Yes,No,Yes,No,No
0.3625,0.616667,None,Yes,High,Low,Male,Yes,Medium,No,No,No,Yes,No
0.6375,0.816667,Medium,Yes,Low,Medium,Female,No,Medium,Yes,No,No,Yes,No
0.075,0.066667,Low,No,Medium,High,Male,No,Medium,No,No,No,Yes,No
0.925,0.85,High,Yes,Medium,High,Male,No,High,No,Yes,Yes,Yes,No
0.65,0.583333,Medium,Yes,High,Low,Male,No,Medium,No,Yes,Yes,No,No
0.5375,0.366667,None,Yes,High,Low,Male,No,Low,Yes,Yes,No,Yes,No
0.3125,0.033333,Low,Yes,High,Low,Female,Yes,Low,Yes,Yes,Yes,No,No
0.05,0.6,None,No,High,Medium,Male,Yes,Medium,Yes,No,No,No,No
0.9625,0.283333,Low,Yes,Low,Low,Female,Yes,Medium,No,No,No,No,No
0.6375,0.45,High,No,Medium,Medium,Female,Yes,Low,No,No,No,Yes,No
0.2875,0.183333,High,Yes,Medium,Medium,Female,Yes,Low,Yes,No,Yes,Yes,No
0.8,0.516667,High,Yes,High,High,Female,No,Low,No,Yes,No,No,No
0.1875,0.916667,Low,No,Low,Medium,Female,Yes,Medium,Yes,Yes,Yes,No,No
0.525,0.25,Medium,No,High,Low,Male,No,Low,No,Yes,Yes,No,No
0.3,0.8,Low,No,High,Low,Female,No,Low,No,Yes,No,No,No
0.4125,0.15,Medium,No,Medium,Medium,Male,No,Low,Yes,Yes,Yes,No,No
0.6875,0.45,None,No,Low,High,Female,Yes,Medium,No,No,No,Yes,No
0.05,0.366667,Medium,No,Medium,Medium,Male,No,Low,No,Yes,No,No,No
0.7875,0.766667,Medium,No,High,Medium,Female,Yes,High,Yes,Yes,Yes,Yes,No
0.4375,0.8,Medium,Yes,High,Medium,Female,No,Medium,Yes,Yes,No,Yes,No
0.4,0.266667,High,No,High,High,Male,No,High,Yes,Yes,Yes,Yes,No
0.7625,1,Medium,Yes,High,High,Male,Yes,High,Yes,Yes,Yes,No,No
0.95,0.566667,High,No,High,High,Female,Yes,Medium,Yes,Yes,No,Yes,No
0.4875,1,None,No,High,Medium,Male,No,High,No,Yes,Yes,No,No
0.425,0.533333,Low,No,Medium,Medium,Male,No,High,Yes,No,Yes,No,No
0.9625,0.316667,Medium,Yes,Medium,Low,Female,Yes,Low,Yes,Yes,Yes,No,No
0.1375,0.7,Medium,No,High,Medium,Female,Yes,Low,No,Yes,Yes,Yes,No
0.05,0,None,No,Low,Low,Female,Yes,Low,No,No,Yes,No,No
0.4375,0.083333,None,No,Medium,Medium,Male,No,Low,No,Yes,No,No,No
0,0.55,Low,Yes,Low,High,Female,No,Medium,No,No,Yes,Yes,No
0.5625,0.516667,None,Yes,Low,Medium,Female,No,High,No,No,No,Yes,No
0.7625,0.916667,High,Yes,High,Medium,Female,Yes,High,Yes,Yes,No,Yes,No
0.7375,0.116667,Low,Yes,High,Medium,Female,Yes,Medium,No,Yes,No,Yes,No
0.9375,0.966667,Medium,Yes,Medium,Low,Female,Yes,Low,Yes,No,No,No,No
0.6625,0.766667,None,No,High,High,Male,No,Low,Yes,Yes,Yes,Yes,No
0.0875,0.15,None,No,High,Medium,Male,No,Low,Yes,Yes,No,No,No
0.0875,0.483333,High,No,High,Low,Male,No,Medium,Yes,No,No,No,No
0.9,0.783333,None,No,Low,High,Male,No,Low,Yes,Yes,Yes,Yes,No
0.5625,0.966667,None,No,Low,Low,Female,No,Low,No,No,Yes,Yes,No
0.0875,0.483333,High,No,High,Low,Male,No,Medium,Yes,No,No,No,No
0.0875,0.316667,Medium,Yes,High,Medium,Male,Yes,Medium,No,Yes,No,No,No
0.0625,0.9,Medium,No,High,High,Male,No,Medium,Yes,No,No,Yes,No
0.4125,0.983333,High,No,Low,High,Female,Yes,Medium,Yes,No,No,Yes,No
0.1625,0.866667,High,No,Medium,Medium,Female,No,Medium,No,No,Yes,No,No
0.775,0.283333,Medium,No,Low,Low,Male,No,Medium,No,Yes,Yes,No,No
0.6375,0.483333,High,No,Medium,Low,Male,Yes,Low,Yes,No,Yes,No,No
0.8125,0.066667,High,No,High,Medium,Male,Yes,High,Yes,No,Yes,No,No
0.475,0.2,Medium,Yes,Medium,Low,Male,No,High,No,Yes,No,No,No
0.3375,0.816667,None,Yes,High,Medium,Male,No,Medium,No,No,No,Yes,No
0.175,0.433333,Low,Yes,Medium,Low,Female,No,Low,Yes,No,Yes,No,No
0.4875,0.833333,High,No,Medium,Medium,Female,No,High,No,No,No,Yes,No
0.4125,0.816667,None,No,Low,Low,Female,No,Low,Yes,No,Yes,No,No
0.675,0.516667,None,Yes,High,High,Female,No,Medium,No,No,No,No,No
0.9875,0.166667,Low,No,Low,Low,Female,Yes,Medium,Yes,Yes,Yes,Yes,No
0.2875,0.05,None,Yes,Low,Medium,Male,Yes,Medium,Yes,No,No,Yes,No
0.425,0.9,Medium,No,High,Medium,Female,Yes,Medium,No,Yes,No,Yes,No
0.0375,0.495962,High,Yes,Low,Low,Female,Yes,Medium,No,No,No,No,No
0.25,0.6,Medium,No,Low,Low,Male,Yes,Medium,Yes,Yes,No,No,No
0.1625,0,Medium,No,Low,High,Male,No,Low,No,No,No,No,No
0.3375,0.583333,Low,No,Low,Medium,Female,Yes,High,Yes,Yes,Yes,No,No
0.9125,0.833333,High,Yes,Low,Low,Male,Yes,Low,No,No,Yes,Yes,No
0.775,0.616667,High,Yes,Low,Medium,Male,Yes,Low,No,Yes,No,No,No
0.6125,0.333333,High,Yes,High,Medium,Female,No,Medium,Yes,No,Yes,Yes,No
0.0625,0.4,None,No,Medium,Low,Female,No,Low,Yes,Yes,No,Yes,No
0.0125,0.183333,Low,Yes,High,Low,Female,No,High,Yes,No,Yes,Yes,No
0.3625,0.083333,Medium,No,High,Medium,Female,No,Low,Yes,Yes,Yes,Yes,No
0.6,0.416667,Medium,No,Low,Medium,Female,No,High,Yes,No,No,No,No
0.0125,0.283333,None,Yes,Low,Low,Female,No,High,Yes,Yes,No,Yes,No
0.075,0.083333,High,No,High,High,Female,Yes,Medium,Yes,Yes,Yes,Yes,No
0.3125,0.266667,Medium,No,Low,Low,Male,No,High,No,No,No,Yes,No
0.8125,0.633333,Medium,Yes,Medium,Medium,Female,No,Medium,No,Yes,No,Yes,No
0.5875,0.233333,High,No,High,High,Male,No,Medium,No,No,No,Yes,No
0.35,0.75,Low,No,Medium,Low,Male,Yes,Low,Yes,Yes,Yes,Yes,No
0.85,0.233333,None,Yes,Medium,Medium,Male,No,High,Yes,No,No,Yes,No
0.725,0.616667,Low,No,High,Medium,Male,No,High,No,No,No,Yes,No
0.825,0.816667,High,Yes,Low,High,Female,No,Low,Yes,Yes,Yes,No,No
0.7875,0.65,None,No,High,Low,Male,Yes,Low,Yes,No,No,No,No
0.875,0.2,Low,Yes,High,High,Male,No,High,Yes,Yes,Yes,No,No
0.075,0.35,None,Yes,Low,Low,Male,Yes,High,Yes,No,Yes,No,No
0.375,0.95,High,Yes,Low,Medium,Male,No,Medium,Yes,Yes,No,Yes,No
0.375,0.7,High,No,Low,Low,Male,Yes,Medium,Yes,Yes,No,No,No
0.95,0.65,Low,No,High,High,Male,No,Medium,Yes,Yes,Yes,Yes,No
0.9625,1,None,No,Low,Medium,Male,No,Low,Yes,Yes,No,Yes,No
0.9125,0.316667,Medium,No,Low,Medium,Female,Yes,Medium,Yes,No,Yes,Yes,No
0.95,0.733333,Medium,No,High,Medium,Male,No,High,Yes,No,Yes,No,No
0.1625,0.833333,None,No,Medium,Low,Male,No,High,Yes,No,Yes,No,No
0.575,0.65,Medium,No,High,Medium,Female,Yes,Low,No,Yes,Yes,Yes,No
0.05,0.166667,None,No,High,High,Female,No,High,Yes,No,Yes,No,No
0.0875,0.866667,Medium,No,High,Low,Female,No,Medium,Yes,Yes,Yes,No,No
0.0625,0.35,Medium,Yes,High,Medium,Female,No,High,Yes,Yes,No,Yes,No
0.4625,0.933333,None,No,Low,High,Male,Yes,High,No,Yes,No,No,No
0.1875,0.316667,Low,No,Low,High,Male,No,High,Yes,Yes,No,Yes,No
0.8375,0.366667,None,No,Medium,Medium,Male,No,High,No,No,No,No,No
0.175,0.433333,Low,Yes,Medium,Low,Female,No,Low,Yes,No,Yes,No,No
0.5375,0.5,None,Yes,Medium,High,Male,Yes,Medium,No,No,No,No,No
0.075,0.15,Medium,No,Low,Low,Female,No,Medium,No,Yes,Yes,Yes,No
0.875,0.366667,Low,No,Low,Low,Female,Yes,High,Yes,No,Yes,No,No
0.4,0.9,High,No,High,Medium,Male,No,Medium,Yes,No,No,Yes,No
0.9,0.766667,None,Yes,High,Medium,Male,Yes,High,No,Yes,Yes,No,No
0.1625,0.233333,High,Yes,Medium,Medium,Female,Yes,Low,Yes,Yes,No,No,No
0.2125,0.75,Medium,No,High,High,Male,No,Medium,No,Yes,No,No,No
0.15,0.15,Medium,No,Medium,Medium,Female,No,High,No,No,No,No,No
0.85,0.7,High,Yes,Low,High,Male,Yes,Medium,No,Yes,Yes,Yes,No
0.9875,0.116667,Medium,Yes,Medium,Low,Female,No,Low,No,No,No,Yes,No
0.4125,0.6,High,Yes,Medium,High,Female,Yes,High,No,Yes,Yes,Yes,No
0.4625,0.566667,High,No,Medium,High,Female,No,Low,Yes,Yes,Yes,No,No
0.3125,0.85,Medium,Yes,High,Low,Male,No,High,No,Yes,No,No,No
0.025,1,Low,No,Low,Low,Male,No,Medium,Yes,No,No,Yes,No
0.325,0.933333,None,Yes,Medium,High,Female,Yes,Low,No,No,No,Yes,No
0.3375,0.9,High,No,Low,Medium,Male,Yes,High,No,Yes,Yes,Yes,No
0.6875,0.45,None,No,Low,High,Female,Yes,Medium,No,No,No,Yes,No
0,0.983333,High,Yes,Medium,Low,Female,No,Low,Yes,No,No,No,No
0.3625,0.866667,None,No,Low,High,Male,Yes,Low,Yes,Yes,Yes,Yes,No
0.4375,0.716667,None,Yes,Medium,Low,Female,Yes,Medium,Yes,Yes,No,No,No
0.9375,0.216667,None,Yes,Low,Medium,Male,Yes,Low,Yes,Yes,No,No,No
0.95,0.366667,Medium,Yes,Medium,Low,Male,Yes,High,Yes,Yes,Yes,No,No
0.9625,0.05,Medium,Yes,Medium,Low,Female,Yes,Medium,No,No,No,No,No
0.5625,0.066667,None,Yes,Medium,Low,Female,No,Medium,Yes,Yes,No,No,No
0.775,0.85,High,No,High,High,Male,Yes,High,No,No,Yes,No,No
0.8,0.316667,Medium,No,High,High,Male,Yes,Low,No,No,Yes,Yes,No
0.7625,0.55,Low,No,Medium,Low,Female,No,High,Yes,Yes,No,No,No
0.025,0.15,None,Yes,High,Low,Female,Yes,Low,No,Yes,No,Yes,No
0.7625,0.95,None,Yes,Medium,High,Female,Yes,Medium,Yes,No,No,Yes,No
0.0625,0.016667,None,Yes,Medium,High,Female,Yes,Low,No,Yes,No,No,No
0.3875,0.083333,High,No,High,Low,Male,Yes,Medium,No,No,No,No,No
0.375,0.733333,Low,Yes,Low,Low,Male,Yes,High,No,No,Yes,Yes,No
0.6375,0.4,None,Yes,Medium,Low,Female,No,High,Yes,Yes,No,Yes,No
0.2125,0.495962,None,Yes,High,High,Female,Yes,Medium,Yes,Yes,Yes,No,No
0,0.983333,Low,No,High,Medium,Male,Yes,Medium,Yes,Yes,No,No,No
0.7875,0.733333,Low,Yes,High,High,Female,No,Low,Yes,No,Yes,No,No
0.825,0.316667,Medium,No,High,High,Female,Yes,High,No,No,No,No,No
0.1875,0.866667,Medium,Yes,Medium,Medium,Female,No,Low,Yes,Yes,No,Yes,No
0.175,0.4,Low,Yes,High,Low,Male,Yes,High,Yes,Yes,No,No,No
0.675,0.266667,High,No,High,Low,Male,No,High,Yes,No,No,Yes,No
0.9625,0.5,None,No,Medium,Medium,Male,Yes,High,No,No,No,No,No
0.475,0.2,Low,No,High,Low,Female,No,High,Yes,Yes,Yes,No,No
0.175,0.983333,Low,Yes,Low,Medium,Female,Yes,Medium,No,Yes,No,No,No
0.5,0.133333,Low,Yes,Low,Low,Female,Yes,Medium,Yes,Yes,No,Yes,No
0.4,0.083333,Medium,Yes,Low,Low,Male,No,Low,Yes,Yes,Yes,No,No
0.025,0.183333,Medium,Yes,Low,Medium,Female,Yes,Medium,Yes,No,Yes,Yes,No
0.425,0.533333,None,Yes,Low,Low,Female,No,Low,No,Yes,Yes,Yes,No
0.7,0.8,None,No,Medium,Medium,Female,No,High,No,Yes,No,Yes,No
0.55,0.55,High,Yes,High,Medium,Male,Yes,Medium,Yes,No,No,No,No
0.8875,0.316667,None,No,Low,High,Male,No,Medium,Yes,No,No,No,No
0.9,0.383333,None,Yes,High,Medium,Female,No,Medium,Yes,No,Yes,No,No
0.7625,0.716667,High,No,Medium,Low,Female,Yes,Medium,No,No,Yes,Yes,No
0.2375,0.366667,None,Yes,Medium,Medium,Female,Yes,Medium,No,No,No,No,No
0.2375,0.55,Medium,Yes,Low,High,Female,No,High,No,No,No,Yes,No
0.4,0.783333,Low,No,High,Low,Female,No,Medium,Yes,No,No,Yes,No
0.875,0.95,Low,No,Low,Low,Female,No,High,Yes,Yes,Yes,Yes,No
0.75,0.833333,Low,Yes,Medium,High,Female,Yes,Medium,Yes,No,Yes,Yes,No
0.1875,0.366667,Low,No,Low,Low,Male,Yes,Low,Yes,No,Yes,Yes,No
0.925,0.233333,None,Yes,Low,High,Male,Yes,Low,Yes,Yes,Yes,No,No
0.075,0.483333,High,Yes,High,High,Female,No,High,Yes,No,Yes,Yes,No
0.9625,0.033333,Low,Yes,High,Medium,Female,Yes,Medium,No,No,Yes,Yes,No
0.8375,0.566667,Low,Yes,High,Medium,Female,Yes,Low,Yes,No,No,Yes,No
0.2875,0.233333,High,No,High,Low,Male,No,Medium,No,No,Yes,No,No
0.075,0.483333,None,No,Medium,High,Female,No,High,Yes,No,Yes,No,No
0.175,0.866667,High,Yes,High,Low,Male,Yes,Medium,Yes,Yes,Yes,No,No
0,0.983333,None,Yes,High,Low,Male,Yes,High,Yes,Yes,Yes,No,No
0.2125,0.55,Medium,Yes,High,Low,Male,No,High,Yes,Yes,No,Yes,No
0.8125,0.733333,Low,No,Medium,Low,Male,No,High,Yes,No,No,Yes,No
0.3,0.983333,Medium,No,Low,Low,Male,No,Medium,No,No,Yes,No,No
0.6125,0.15,Low,Yes,Low,Low,Female,No,High,Yes,Yes,Yes,No,No
0.9,0.7,High,Yes,Medium,Medium,Female,Yes,High,Yes,No,Yes,Yes,No
0.9625,0.066667,High,No,Medium,High,Female,Yes,High,Yes,No,Yes,No,No
0.725,0.616667,High,No,Low,High,Female,No,Low,No,Yes,No,No,No
0.65,0.816667,Low,Yes,High,High,Female,Yes,Low,Yes,No,No,No,No
0.6875,0.083333,High,No,Medium,Medium,Male,Yes,Low,No,No,Yes,No,No
0.5625,0.233333,High,Yes,Medium,High,Female,No,High,Yes,No,No,Yes,No
0.5875,0.583333,Low,Yes,High,High,Male,No,Medium,No,Yes,No,Yes,No
0.501778,0.666667,Low,Yes,Low,Medium,Male,Yes,Low,Yes,Yes,No,Yes,No
0.475,0.85,Medium,No,Low,Low,Female,Yes,High,Yes,Yes,No,Yes,No
0.7625,0.366667,Medium,No,Medium,Low,Male,No,Medium,Yes,No,Yes,Yes,No
0.875,0.9,None,No,Low,High,Male,Yes,Low,No,No,Yes,Yes,No
0.825,0.6,Medium,No,Low,Low,Female,Yes,Low,Yes,No,Yes,No,No
0.725,0.033333,Medium,No,High,Low,Male,Yes,Low,No,No,Yes,Yes,No
0.5875,1,High,No,Low,Low,Male,No,Medium,No,Yes,No,Yes,No
0,0.783333,High,No,Low,High,Male,Yes,Low,Yes,Yes,Yes,No,No
0.65,0.066667,Medium,Yes,Low,Medium,Male,Yes,Low,No,Yes,Yes,Yes,No
0.0125,0.533333,Low,Yes,Medium,High,Male,Yes,Medium,No,Yes,Yes,Yes,No
0.9125,0.133333,Medium,Yes,High,Medium,Female,No,High,Yes,Yes,No,No,No
0.75,0.783333,Medium,Yes,Low,Medium,Female,Yes,High,No,No,Yes,Yes,No
0,0.366667,Medium,Yes,Low,Low,Female,Yes,Medium,No,Yes,Yes,No,No
1,0.333333,None,No,Low,Medium,Male,Yes,Low,Yes,Yes,Yes,Yes,No
0.1,0.466667,Low,No,Medium,Medium,Female,Yes,High,Yes,No,No,No,No
0.8,0.15,None,No,Low,High,Female,No,Medium,No,Yes,Yes,Yes,No
0.675,0.233333,Medium,No,Low,Medium,Female,No,High,Yes,Yes,No,Yes,No
0.525,0.216667,Low,No,Medium,Low,Female,No,High,No,No,No,Yes,No
0.85,0.966667,Low,No,High,High,Male,No,Low,Yes,Yes,No,Yes,No
0.9,0.983333,Low,Yes,Low,High,Female,Yes,Medium,No,No,Yes,Yes,No
0.4625,0.983333,High,No,Medium,High,Male,Yes,High,Yes,Yes,Yes,Yes,No
0.25,0.583333,None,Yes,Medium,Low,Male,Yes,High,Yes,No,Yes,Yes,No
0.8625,0.25,High,No,Low,Medium,Female,Yes,Low,No,No,No,No,No
0.4625,0.75,None,No,Low,Medium,Male,Yes,Medium,No,No,Yes,Yes,No
0.2125,0.483333,High,No,Low,Low,Female,No,Medium,Yes,No,No,No,No
0.925,0.366667,High,Yes,Medium,Low,Male,No,High,Yes,No,Yes,No,No
0.85,0.333333,High,Yes,Low,Low,Male,Yes,Low,No,Yes,No,Yes,No
0.5875,0.75,None,No,High,Low,Male,Yes,Low,No,No,No,Yes,No
0.275,0.133333,Medium,Yes,High,Low,Male,No,Low,Yes,Yes,No,No,No
0.9875,0.466667,Medium,No,Low,High,Female,Yes,Low,Yes,No,No,Yes,No
0.575,0.933333,None,Yes,Low,Medium,Male,Yes,High,Yes,No,Yes,Yes,No
0.3,0.9,None,Yes,Medium,Medium,Male,Yes,Low,Yes,No,Yes,Yes,No
0.4125,0.783333,High,No,Medium,Medium,Male,Yes,Low,Yes,No,Yes,No,No
0.5875,0.033333,None,No,Low,High,Female,No,High,No,Yes,No,Yes,No
0.4875,0.716667,Medium,No,High,High,Male,No,Medium,Yes,No,Yes,No,No
0.8625,0.4,Medium,Yes,Medium,Low,Female,Yes,Low,Yes,Yes,No,No,No
0.925,0.833333,Low,Yes,High,Low,Female,Yes,High,Yes,Yes,Yes,No,No
0.15,0.283333,Medium,Yes,Medium,High,Female,No,Low,Yes,Yes,No,No,No
0.55,1,None,Yes,Medium,Medium,Female,No,High,Yes,Yes,Yes,No,No
0.6375,0.283333,Medium,No,Low,High,Female,No,Medium,No,No,No,No,No
0.7375,0.216667,High,No,Medium,High,Male,No,Low,No,No,No,Yes,No
0.95,0.733333,Low,No,High,Low,Female,Yes,Low,No,No,No,Yes,No
0.7625,0.766667,Low,Yes,Low,High,Male,Yes,Low,Yes,Yes,Yes,No,No
0,0.316667,High,Yes,Low,Low,Female,No,Medium,Yes,Yes,Yes,No,No
0.2125,0,High,Yes,Medium,Medium,Male,No,High,Yes,No,No,Yes,No
0.7625,0.866667,Low,No,Low,Medium,Male,No,Medium,Yes,Yes,Yes,No,No
0.2,0.016667,None,No,Low,Medium,Female,No,Medium,No,No,No,No,No
0.35,0.533333,None,Yes,Medium,Medium,Male,No,Low,No,Yes,No,No,No
0.475,0.1,None,No,Medium,Medium,Female,No,High,Yes,Yes,Yes,No,No
0.45,0.966667,Low,No,High,Low,Male,No,Low,Yes,Yes,No,No,No
0.5125,0.383333,None,No,Medium,Medium,Female,No,Medium,No,Yes,No,No,No
0.6375,0.233333,Medium,No,Low,Medium,Female,No,Low,Yes,No,No,Yes,No
0.225,0.8,None,No,High,Low,Male,Yes,High,Yes,Yes,Yes,No,No
0.5,0.983333,High,No,Low,Low,Male,Yes,High,Yes,Yes,Yes,No,No
0.725,0.416667,High,Yes,High,Medium,Female,Yes,Medium,Yes,No,No,Yes,No
0.65,0.316667,Low,Yes,Medium,High,Female,Yes,High,No,No,Yes,Yes,No
0.4875,0.283333,Low,No,Low,Medium,Male,No,Low,Yes,Yes,Yes,No,No
1,0.416667,Medium,No,Medium,Low,Male,Yes,Medium,Yes,No,Yes,Yes,No
0.6875,0.766667,Low,No,Medium,High,Male,No,Low,No,No,Yes,Yes,No
0.025,0.616667,Medium,No,High,High,Female,Yes,Medium,No,Yes,Yes,No,No
0.6125,0.783333,Low,No,Medium,Low,Male,Yes,Low,Yes,Yes,No,No,No
0.6125,0.833333,Low,No,Low,High,Male,No,Medium,Yes,Yes,No,Yes,No
0.175,0.55,Low,No,High,High,Female,No,High,Yes,Yes,Yes,Yes,No
0.501778,0.283333,None,No,Medium,High,Male,Yes,Low,No,No,No,No,No
0.8,0.9,None,No,High,Low,Male,Yes,High,No,No,No,Yes,No
0.35,0.083333,Low,Yes,High,Low,Female,Yes,Low,Yes,No,Yes,No,No
0.5875,0.883333,Low,No,High,Medium,Female,No,High,Yes,No,No,Yes,No
0.55,0.883333,High,No,Low,Medium,Male,Yes,Medium,No,Yes,Yes,Yes,No
0.4625,0.25,Medium,Yes,Medium,Low,Male,No,Low,No,No,Yes,Yes,No
0.75,0.816667,None,No,Low,High,Male,Yes,Low,Yes,No,No,Yes,No
0.6375,0.65,None,No,High,Low,Female,Yes,High,No,Yes,Yes,No,No
0.3625,0.35,Low,No,High,Low,Female,No,Low,No,No,No,Yes,No
0.95,0.783333,Medium,Yes,Medium,Low,Female,Yes,Medium,No,Yes,No,Yes,No
0.2375,0.483333,Low,No,Medium,Low,Male,No,Low,Yes,No,No,No,No
0.825,0.083333,Low,No,Medium,High,Female,Yes,Medium,Yes,Yes,No,No,No
0.1125,0.666667,High,Yes,Low,Medium,Female,Yes,Low,Yes,No,Yes,No,No
0.8125,0.066667,None,Yes,Low,High,Female,Yes,High,Yes,No,Yes,Yes,No
0.6,0.133333,None,No,High,Low,Female,No,High,No,Yes,Yes,No,No
0.2,0.783333,Low,Yes,High,Medium,Male,No,Medium,Yes,Yes,Yes,Yes,No
0.9875,0.166667,Low,No,Low,Low,Female,Yes,Medium,Yes,Yes,Yes,Yes,No
0.675,0.083333,Medium,Yes,High,Low,Male,No,High,Yes,No,No,Yes,No
0.55,0.8,None,No,High,High,Female,No,Low,No,No,Yes,Yes,No
0.95,0.866667,Low,No,Low,High,Female,Yes,High,No,No,No,No,No
0.2375,0.666667,Low,Yes,Low,Medium,Male,Yes,Medium,No,Yes,Yes,Yes,No
0.175,0.966667,None,Yes,Medium,Medium,Female,No,Low,Yes,Yes,Yes,Yes,No
0.9625,0.75,High,Yes,Medium,High,Male,Yes,High,Yes,No,Yes,No,No
0.3375,0.283333,High,Yes,High,High,Male,Yes,Low,No,No,Yes,Yes,No
0.725,0.6,Medium,Yes,Medium,Medium,Female,No,High,No,Yes,Yes,No,No
0.4875,0.75,Medium,Yes,Medium,Medium,Female,No,Low,Yes,No,Yes,Yes,No
0.65,0.783333,None,No,High,Medium,Male,Yes,High,Yes,Yes,Yes,No,No
0.9875,0.716667,High,No,Low,Low,Female,Yes,Medium,Yes,No,Yes,No,No
0.025,0.816667,Medium,Yes,High,Low,Female,No,Low,Yes,No,No,No,No
0.6375,0.133333,High,Yes,Medium,Low,Male,No,Medium,No,Yes,Yes,Yes,No
0.1875,0.35,High,No,High,Medium,Male,Yes,Low,Yes,Yes,Yes,Yes,No
0.5875,0.683333,Low,Yes,Medium,Low,Male,Yes,Low,Yes,Yes,No,Yes,No
0.8375,0.416667,High,No,Low,Low,Female,No,Low,Yes,No,No,No,No
0.3375,0.05,None,Yes,High,High,Female,Yes,Medium,Yes,Yes,No,Yes,No
0.325,0.883333,Low,No,Medium,Low,Male,Yes,Medium,No,No,Yes,Yes,No
0.2625,0.333333,Medium,No,Low,Low,Female,Yes,Low,Yes,Yes,Yes,No,No
0.1375,0.983333,Low,Yes,Medium,Low,Male,No,Low,Yes,No,Yes,Yes,No
0.5375,0.966667,Low,Yes,Low,High,Female,Yes,Low,Yes,No,No,No,No
0.7125,0.033333,Low,Yes,High,Medium,Female,Yes,Medium,No,No,No,Yes,No
0.275,0.75,High,Yes,High,Medium,Female,Yes,Low,Yes,Yes,Yes,No,No
0.6375,0.033333,High,No,High,Medium,Male,No,Medium,No,No,Yes,No,No
0.35,0.283333,High,No,High,High,Male,Yes,Low,No,Yes,No,No,No
0.05,0.033333,None,Yes,High,High,Male,No,Medium,No,Yes,No,No,No
0.65,0.05,None,No,High,Low,Female,Yes,Low,No,Yes,No,No,No
0.275,0.7,None,Yes,High,Medium,Male,No,High,No,Yes,No,Yes,No
0.2375,0.4,Low,No,Low,Medium,Male,No,High,Yes,No,No,Yes,No
0.1375,0.9,High,Yes,Medium,High,Male,Yes,Medium,Yes,Yes,No,No,No
0.9875,0.133333,None,Yes,Low,Medium,Male,No,Medium,Yes,No,No,Yes,No
0.575,0.866667,High,No,High,Low,Male,No,Low,No,No,Yes,Yes,No
0.0125,0.233333,None,No,High,High,Male,Yes,Medium,Yes,Yes,No,Yes,No
0.425,0.066667,Low,Yes,Medium,Medium,Male,Yes,High,No,No,No,No,No
0.7125,0.783333,Low,Yes,Low,Medium,Female,Yes,High,No,Yes,No,Yes,No
0.85,0.516667,Low,Yes,High,Low,Female,Yes,Low,No,No,No,No,No
0.425,0.25,Medium,No,High,Medium,Male,Yes,High,Yes,Yes,Yes,Yes,No
0.475,0.15,High,No,High,Medium,Male,No,Medium,No,Yes,Yes,No,No
0.0125,0.933333,High,Yes,Low,High,Female,No,High,No,Yes,No,No,No
0.475,0.233333,Medium,Yes,Low,Medium,Male,Yes,High,Yes,Yes,Yes,No,No
0.775,0.666667,None,No,High,Low,Male,No,High,Yes,Yes,No,No,No
0.5875,0.55,Low,Yes,Low,Medium,Female,Yes,Low,No,Yes,Yes,No,No
0.6375,0.216667,Low,No,Low,High,Male,Yes,Medium,Yes,No,No,No,No
0.0125,1,None,Yes,Medium,Low,Female,Yes,Low,Yes,No,No,No,No
0.5125,0.15,High,Yes,Low,High,Female,Yes,High,No,Yes,No,No,No
0.4,0.733333,Medium,No,Low,Medium,Male,Yes,High,No,Yes,No,Yes,No
0.7375,0.1,None,No,Low,High,Female,No,Medium,No,Yes,No,Yes,No
0.6875,0.133333,None,Yes,High,Low,Male,No,High,Yes,No,Yes,Yes,No
0.4875,0.866667,Low,No,High,Low,Male,No,High,No,Yes,No,Yes,No
0.2625,0.666667,High,Yes,Low,High,Female,No,High,Yes,No,No,Yes,No
0,0.65,None,No,Low,Medium,Male,Yes,Low,Yes,No,Yes,Yes,No
0.4875,0.833333,None,Yes,Low,Medium,Male,Yes,High,No,Yes,No,Yes,No
0.1375,0.016667,High,No,High,Low,Male,No,Medium,Yes,No,No,Yes,No
0.325,0.566667,Low,Yes,Low,Medium,Female,No,High,Yes,No,No,No,No
1,0.9,None,Yes,Medium,High,Female,No,Medium,No,No,No,No,No
1,0.233333,None,No,High,High,Male,Yes,Medium,Yes,Yes,Yes,No,No
0.4,0.55,Medium,No,High,Low,Male,Yes,High,No,Yes,No,No,No
0.5125,0.95,Medium,Yes,High,High,Male,Yes,Low,No,Yes,No,No,No
0.3875,0.716667,None,No,Medium,Low,Male,No,Low,Yes,No,Yes,No,No
0.2625,0.05,Medium,Yes,Low,Low,Male,No,Medium,Yes,Yes,Yes,Yes,No
0.625,0.266667,None,No,Medium,High,Female,Yes,Low,Yes,Yes,Yes,No,No
0.5375,0.933333,High,No,High,High,Female,Yes,Medium,No,Yes,Yes,No,No
0,0.466667,None,No,Medium,Medium,Female,No,Low,No,No,Yes,No,No
0.6125,0.733333,None,No,Medium,High,Female,No,Medium,No,Yes,No,No,No
0.3,0.133333,Low,No,Low,Medium,Male,No,High,Yes,Yes,Yes,Yes,No
0.5625,0.566667,Low,No,Low,Medium,Female,No,Medium,No,No,No,No,No
0,0.566667,None,No,Medium,Medium,Male,Yes,High,Yes,Yes,Yes,Yes,No
0.8875,0.3,Medium,No,High,High,Male,Yes,Medium,No,Yes,No,Yes,No
0.4375,0.233333,Low,Yes,Medium,Medium,Male,Yes,High,Yes,No,Yes,Yes,No
0.8875,0.216667,Medium,Yes,High,High,Female,Yes,High,No,No,Yes,Yes,No
0.55,0.5,None,No,Medium,Low,Male,Yes,Medium,No,Yes,Yes,No,No
0.4125,0.433333,None,No,Medium,Medium,Female,Yes,High,No,No,Yes,No,No
0.8125,0.216667,Medium,Yes,Medium,Low,Female,No,Low,Yes,Yes,Yes,No,No
0.65,0.5,High,Yes,Low,High,Female,No,High,Yes,No,Yes,No,No
0.325,0.816667,High,Yes,Low,High,Male,No,High,No,Yes,Yes,Yes,No
0.55,0.95,Low,Yes,Medium,Medium,Male,No,Medium,No,Yes,Yes,No,No
0.8,0.266667,None,Yes,Medium,Medium,Female,No,Low,No,Yes,No,No,No
0.45,0.55,Medium,No,Low,High,Female,Yes,Medium,No,Yes,No,Yes,No
0.725,0.616667,High,No,Low,High,Female,No,Low,No,Yes,No,No,No
0.225,0.75,Low,No,High,High,Female,No,High,No,No,Yes,Yes,No
0.8875,0.9,None,No,High,Medium,Male,Yes,Low,No,No,Yes,No,No
0.4875,0.733333,Medium,Yes,High,Low,Male,Yes,Low,Yes,Yes,No,Yes,No
0.3,0.083333,Medium,Yes,Low,Medium,Female,No,Medium,Yes,Yes,Yes,Yes,No
0.8125,0.9,Low,Yes,High,Medium,Male,Yes,High,Yes,No,No,No,No
0.0875,0.483333,High,No,Low,Low,Male,No,Medium,Yes,No,No,Yes,No
0,0.55,Low,Yes,Medium,High,Female,No,Low,Yes,Yes,Yes,Yes,No
0.125,0.3,High,Yes,Medium,High,Male,No,Medium,No,Yes,No,Yes,No
0.1375,1,None,Yes,Medium,High,Male,Yes,Low,Yes,No,Yes,No,No
0.8125,0.35,High,Yes,Low,Medium,Male,Yes,Low,Yes,No,No,No,No
0.375,0.216667,Low,Yes,Low,Medium,Female,Yes,Low,No,Yes,Yes,No,No
0.7125,0.933333,Low,Yes,Medium,High,Female,No,Medium,No,Yes,Yes,Yes,No
0,0.5,Low,No,High,Medium,Female,Yes,High,Yes,Yes,Yes,No,No
0.0875,0.483333,Medium,Yes,Medium,Low,Male,No,High,No,Yes,No,No,No
0.6375,0.133333,High,No,Low,Low,Male,Yes,Medium,Yes,Yes,Yes,No,No
0.65,0.966667,Low,No,Low,Medium,Female,No,Low,Yes,Yes,No,Yes,No
0.0375,0.1,High,No,Medium,Medium,Male,No,Low,Yes,No,No,Yes,No
0.8375,0.5,Low,No,High,High,Female,Yes,Medium,No,No,No,No,No
0.9,0.15,High,No,Medium,High,Male,No,High,No,No,No,Yes,No
0.0625,0.5,Medium,Yes,Medium,High,Female,Yes,Low,No,Yes,Yes,No,No
0.0625,0.75,None,No,Medium,Medium,Female,No,Medium,Yes,Yes,No,No,No
0.425,0.45,High,Yes,Medium,Low,Male,Yes,Low,No,No,Yes,No,No
0.15,0.733333,Low,Yes,Low,Low,Female,Yes,Medium,Yes,No,Yes,Yes,No
0.6625,0.4,Low,Yes,High,Low,Male,No,Medium,No,No,No,No,No
0.1125,0.55,Low,Yes,High,Medium,Male,No,High,Yes,Yes,Yes,No,No
0.2625,0.883333,None,No,Medium,High,Male,Yes,Low,Yes,No,No,Yes,No
0.675,0.583333,Medium,No,Medium,Low,Male,Yes,Medium,No,Yes,Yes,No,No
0.0625,0.133333,High,No,High,High,Male,Yes,High,No,No,No,No,No
0.6375,0.716667,Medium,No,Medium,Low,Female,Yes,High,No,No,No,No,No
0.675,0.733333,Low,No,High,High,Female,No,Medium,Yes,Yes,Yes,Yes,No
0.1625,0.516667,Low,Yes,High,Medium,Male,No,High,No,No,Yes,Yes,No
0.6875,0.85,Medium,No,Low,Low,Male,No,Low,Yes,Yes,Yes,Yes,No
0.8375,0.033333,Medium,Yes,Low,High,Female,No,Low,No,No,No,Yes,No
0.5375,0.533333,None,Yes,Medium,Low,Male,Yes,High,Yes,Yes,Yes,No,No
0.125,0.75,Medium,Yes,High,Low,Male,Yes,High,Yes,Yes,Yes,No,No
0.45,0.916667,None,Yes,Low,High,Female,Yes,Medium,Yes,No,No,Yes,No
0.501778,0.833333,None,Yes,Medium,High,Male,Yes,Medium,Yes,Yes,Yes,Yes,No
0.1625,0.116667,Low,No,High,Medium,Female,No,High,Yes,Yes,No,No,No
0.375,0.066667,None,No,High,Low,Male,No,High,No,No,No,Yes,No
0.55,0.516667,Low,Yes,High,Low,Female,No,High,No,No,No,No,No
0.7125,0,High,No,Medium,High,Female,No,Medium,No,Yes,No,No,No
0.2125,0.666667,High,Yes,Medium,High,Male,Yes,Low,Yes,Yes,Yes,No,No
0.3375,0.333333,Low,Yes,Low,Low,Female,Yes,High,No,Yes,Yes,Yes,No
0.5125,0.866667,Medium,No,Medium,Medium,Male,Yes,Low,Yes,Yes,Yes,Yes,No
0.6625,0.466667,None,No,Medium,Medium,Female,Yes,High,Yes,No,Yes,No,No
0.9625,0.766667,High,No,Low,High,Male,Yes,Low,No,Yes,No,No,No
0.1125,0.1,None,No,Medium,Low,Male,No,Low,No,No,Yes,No,No
0.9625,0.783333,Low,No,Low,Low,Female,Yes,High,No,Yes,Yes,Yes,No
0.775,0.7,None,No,Low,Low,Male,Yes,Medium,No,Yes,No,No,No
0.325,0.883333,Low,No,Medium,Low,Male,Yes,Medium,No,No,Yes,Yes,No
0.3875,0.233333,Low,No,Low,High,Female,Yes,Low,Yes,Yes,Yes,No,No
0.6375,0.316667,Medium,No,High,Low,Female,Yes,Low,No,Yes,No,No,No
0.7125,0.133333,High,Yes,High,High,Male,No,Low,No,No,Yes,No,No
0.4,0.833333,High,Yes,High,High,Male,No,High,No,No,Yes,Yes,No
0.7875,0.583333,None,No,Medium,Low,Female,No,Medium,No,Yes,No,Yes,No
0.5375,0.383333,Medium,No,Low,High,Female,Yes,Medium,No,Yes,No,No,No
0.8875,0.433333,Medium,No,Low,Medium,Female,Yes,High,No,Yes,Yes,Yes,No
0.8,0.666667,High,No,Low,Medium,Male,No,High,Yes,Yes,Yes,No,No
0.4,0.116667,Medium,Yes,Low,Low,Female,No,Low,Yes,Yes,No,Yes,No
0.65,0.05,None,Yes,Medium,Low,Male,Yes,Low,Yes,Yes,Yes,Yes,No
0.85,0.033333,None,No,Low,Low,Female,No,Medium,No,Yes,No,Yes,No
0.1625,0.516667,High,Yes,High,High,Male,No,High,Yes,No,No,Yes,No
0.4125,0.816667,Medium,No,Low,Low,Female,Yes,High,No,Yes,Yes,No,No
0.6125,0.733333,Low,No,High,High,Female,Yes,Low,Yes,No,Yes,Yes,No
0.725,0.35,High,Yes,Low,Medium,Male,Yes,Medium,No,Yes,No,Yes,No
0.9625,0.966667,Medium,No,Medium,Low,Male,No,Low,Yes,No,Yes,Yes,No
0.525,0.933333,Medium,Yes,High,High,Male,No,Low,No,Yes,No,No,No
0.6125,0.333333,High,Yes,High,Medium,Female,No,Medium,Yes,No,Yes,Yes,No
0.5875,0,Medium,No,High,Medium,Female,No,Medium,Yes,No,Yes,No,No
0.6125,0.366667,None,Yes,High,High,Female,No,Medium,Yes,Yes,Yes,No,No
0.775,0.35,None,No,Medium,Medium,Male,Yes,Low,No,No,Yes,No,No
0.1375,0.266667,Medium,Yes,Medium,Low,Male,Yes,Medium,Yes,Yes,Yes,Yes,No
0.7125,0.533333,None,No,Low,Low,Male,No,Low,Yes,No,Yes,No,No
0.5625,0.333333,None,Yes,Low,Medium,Female,Yes,Low,Yes,No,Yes,Yes,No
0.65,0.966667,High,No,Medium,Low,Male,Yes,Low,No,No,No,Yes,No
0.4875,0.066667,High,No,Medium,High,Female,No,High,Yes,No,No,No,No
0.45,0.65,High,Yes,High,Low,Male,Yes,High,No,Yes,Yes,Yes,No
0.825,0.983333,Low,No,Medium,Medium,Male,No,High,No,Yes,No,No,No
0.95,0.933333,Low,Yes,Medium,Medium,Female,No,Medium,Yes,No,Yes,No,No
0.7125,0.95,Low,Yes,High,High,Male,Yes,High,Yes,Yes,Yes,Yes,No
0.9125,0.616667,None,Yes,Medium,High,Male,No,Low,No,No,Yes,Yes,No
0.2375,0.483333,High,No,High,Low,Male,Yes,High,No,Yes,Yes,Yes,No
0.4375,0.866667,None,No,Low,Low,Male,No,High,No,Yes,No,No,No
0.8375,0.466667,Low,Yes,High,Medium,Female,No,Medium,No,Yes,No,Yes,No
0.25,0.033333,None,Yes,Low,Medium,Male,Yes,High,No,No,Yes,No,No
0.6125,0.4,Low,Yes,Medium,Low,Female,Yes,High,Yes,No,Yes,No,No
0.8875,0,Medium,Yes,Medium,High,Female,No,Medium,Yes,Yes,Yes,No,No
0.175,0.866667,None,Yes,Medium,Medium,Male,No,Low,Yes,No,No,No,No
0.8375,0.966667,Medium,No,Medium,Low,Male,No,Medium,Yes,Yes,Yes,Yes,No
0.9625,0.8,High,No,Medium,Low,Male,Yes,Medium,Yes,No,Yes,Yes,No
0.8875,0.233333,Low,Yes,High,High,Male,Yes,High,Yes,Yes,Yes,No,No
0.6125,0.816667,Medium,Yes,High,High,Male,Yes,Low,No,Yes,Yes,No,No
0.4,0.016667,Medium,No,High,Low,Female,Yes,High,No,No,Yes,Yes,No
0.9625,0.4,Medium,Yes,Low,High,Male,No,Medium,Yes,Yes,No,No,No
0.825,0.616667,Low,Yes,Medium,High,Male,No,Medium,Yes,No,No,Yes,No
0.7625,0.983333,Low,No,Low,Medium,Male,Yes,High,Yes,No,No,Yes,No
0.0875,0.383333,Medium,Yes,High,Medium,Male,Yes,Low,Yes,No,Yes,No,No
0.7875,0.883333,Medium,Yes,Low,High,Male,No,High,Yes,Yes,Yes,No,No
0.6,0.233333,Medium,Yes,High,Medium,Female,No,High,No,Yes,Yes,Yes,No
0.025,0.033333,Low,No,High,High,Male,Yes,Medium,Yes,No,Yes,No,No
0.675,0.333333,High,No,Low,Low,Female,Yes,Medium,Yes,Yes,Yes,Yes,No
0.875,0.8,High,Yes,Low,Medium,Male,Yes,High,No,Yes,Yes,Yes,No
0.9875,0.583333,Low,No,Low,Low,Male,Yes,Medium,Yes,Yes,Yes,No,No
0.9625,0.4,High,No,Low,Low,Female,Yes,Medium,No,No,Yes,Yes,No
0.3,0.216667,Low,No,Medium,High,Female,Yes,Medium,No,Yes,Yes,No,No
0.125,0.733333,Medium,Yes,High,Medium,Male,Yes,Low,Yes,No,No,Yes,No
0.15,0.266667,None,No,Low,Low,Female,No,High,Yes,No,Yes,No,No
0.9875,0.366667,High,Yes,Medium,Low,Male,Yes,Low,No,Yes,Yes,Yes,No
0.875,0.9,None,No,Low,High,Male,Yes,Low,No,No,Yes,Yes,No
0.9,0.8,Medium,Yes,Low,Low,Male,Yes,Low,Yes,Yes,No,Yes,No
0.05,0.216667,Low,Yes,Medium,Low,Female,Yes,High,No,No,Yes,Yes,No
0.1125,0.616667,None,Yes,Medium,Low,Male,Yes,Low,Yes,No,No,No,No
0.925,0.15,Medium,Yes,High,Low,Female,Yes,High,Yes,No,No,No,No
0.7875,0.5,High,Yes,High,Medium,Male,No,High,Yes,Yes,No,Yes,No
0.35,0.716667,Medium,Yes,Medium,High,Male,Yes,Low,No,No,No,Yes,No
0.6375,0.85,Medium,Yes,Medium,Medium,Female,No,High,No,Yes,No,Yes,No
0.575,0.216667,None,No,High,Low,Male,Yes,Medium,No,No,No,Yes,No
0.1,0.016667,High,Yes,High,Low,Female,No,High,Yes,No,Yes,No,No
0.75,0.65,None,No,High,Medium,Female,Yes,Low,Yes,Yes,No,Yes,No
0.1875,0.833333,Medium,No,Low,Medium,Female,No,High,No,Yes,Yes,No,No
0.4125,0.533333,Low,Yes,Low,High,Female,Yes,Low,Yes,No,Yes,No,No
0.6875,0.5,None,Yes,Low,Medium,Male,Yes,High,Yes,Yes,Yes,No,No
0.0875,0.783333,Low,No,Medium,Low,Male,Yes,Medium,No,No,Yes,Yes,No
0.5875,0.433333,Medium,Yes,High,High,Female,Yes,High,No,Yes,No,Yes,No
0.7625,0.783333,Medium,Yes,Low,Medium,Male,Yes,Medium,Yes,No,Yes,No,No
0.6875,0.35,Medium,No,Low,High,Female,Yes,Low,No,No,No,No,No
0.925,0.316667,Low,Yes,Medium,Medium,Female,No,Low,No,No,Yes,Yes,No
0.3125,0.05,None,Yes,Low,Low,Male,Yes,High,Yes,No,Yes,Yes,No
0.2375,0.466667,None,Yes,Medium,High,Female,No,Medium,No,No,Yes,No,No
0.2125,0.316667,High,No,High,Low,Female,Yes,Low,Yes,Yes,No,No,No
0.2,0.75,Medium,No,High,Medium,Female,No,High,No,Yes,Yes,No,No
0.3625,0.8,High,No,High,High,Male,No,High,Yes,No,Yes,Yes,No
0.2,0.133333,Low,Yes,Low,High,Female,Yes,Low,Yes,No,No,Yes,No
0.575,0.85,High,Yes,Low,Low,Male,Yes,Low,Yes,Yes,Yes,No,No
0.1125,0.266667,Medium,Yes,Medium,Medium,Female,Yes,High,Yes,Yes,No,Yes,No
0.875,0.366667,Medium,Yes,Medium,High,Female,Yes,Medium,Yes,No,No,No,No
0.1625,0.383333,None,Yes,Medium,Medium,Female,Yes,Low,Yes,Yes,No,No,No
0.175,0.683333,Medium,No,Low,Low,Female,No,High,No,Yes,No,No,No
0.9,0.016667,None,No,Low,Low,Female,Yes,Low,No,Yes,Yes,Yes,No
0.9625,0.366667,Medium,No,Low,Medium,Male,No,Medium,No,Yes,Yes,Yes,No
0.5125,0.366667,None,Yes,Low,Medium,Female,Yes,Medium,Yes,Yes,No,Yes,No
0.9875,0.283333,Medium,Yes,High,Low,Male,No,Low,Yes,No,Yes,Yes,No
0.45,0.383333,Low,Yes,Medium,High,Female,No,Low,Yes,No,Yes,Yes,No
0.1625,0.9,Low,No,High,High,Female,No,Low,Yes,No,No,Yes,No
0.5875,0.45,Medium,Yes,Medium,High,Female,No,High,No,No,Yes,Yes,No
0.45,0.866667,None,Yes,High,Low,Female,Yes,Medium,No,Yes,No,No,No
0.9875,0.616667,None,Yes,Low,Medium,Female,Yes,Low,Yes,No,Yes,No,No
0.675,0.866667,High,No,Medium,High,Female,No,Medium,No,Yes,Yes,Yes,No
0.1125,0.55,High,Yes,High,High,Female,No,High,Yes,Yes,Yes,Yes,No
0.7375,0.25,High,No,Medium,Low,Female,No,High,No,No,Yes,No,No
0.35,0.883333,High,No,Medium,Low,Female,No,Medium,Yes,Yes,No,No,No
0.1,0.416667,Low,Yes,High,Medium,Female,Yes,High,Yes,No,No,No,No
0.025,0.516667,High,No,High,Medium,Female,No,High,Yes,No,No,No,No
0.0375,0.616667,Medium,No,Medium,High,Male,No,Low,No,No,Yes,Yes,No
0.225,0.133333,Low,Yes,Low,High,Female,Yes,High,Yes,Yes,Yes,Yes,No
0.6375,0.2,Medium,No,Medium,High,Male,Yes,High,No,Yes,No,No,No
0.7625,0.983333,Low,No,Low,Medium,Male,Yes,High,Yes,No,No,Yes,No
0.7375,0.05,High,No,High,Low,Male,No,High,Yes,Yes,No,No,No
0.175,0.433333,Low,Yes,Medium,Low,Female,No,Low,Yes,No,Yes,No,No
0.8125,0.283333,Low,No,Medium,High,Male,No,Low,Yes,No,No,Yes,No
0.1375,0.416667,High,No,Medium,Medium,Male,Yes,Low,Yes,No,No,Yes,No
0.725,0.366667,None,No,Medium,Low,Male,No,Low,No,No,Yes,Yes,No
0.625,0.8,Low,No,Low,Low,Male,No,Low,Yes,No,No,No,No
0.1125,0.416667,Low,No,High,High,Male,No,Low,Yes,No,No,Yes,No
0.375,0.283333,Low,Yes,High,Low,Male,No,Low,Yes,Yes,No,Yes,No
0.175,0.683333,Low,No,Medium,High,Male,Yes,High,Yes,No,No,No,No
1,0.15,None,Yes,Medium,Low,Male,Yes,High,Yes,Yes,Yes,No,No
0.7875,0.816667,Medium,No,Medium,Low,Male,Yes,High,No,Yes,Yes,Yes,No
0.525,0.166667,Medium,Yes,Medium,Low,Male,No,Medium,Yes,Yes,Yes,No,No
0.0625,0.683333,Medium,Yes,High,High,Female,No,High,No,No,Yes,No,No
0.4375,0.35,Medium,No,Low,Low,Female,Yes,Low,Yes,Yes,Yes,Yes,No
0.6375,0.683333,None,Yes,Low,High,Male,No,Low,Yes,Yes,Yes,Yes,No
0.3875,0.283333,High,Yes,High,Low,Male,No,High,Yes,Yes,No,Yes,No
0.6,0.1,Medium,No,Low,Low,Male,No,Medium,No,Yes,No,Yes,No
0.9125,0.683333,None,Yes,Medium,High,Female,No,Medium,No,Yes,No,No,No
0.7375,0.766667,High,No,High,Medium,Male,Yes,High,No,No,No,Yes,No
0.7625,0.7,None,Yes,Medium,High,Male,No,Medium,No,Yes,Yes,No,No
0.775,0.816667,Low,No,Low,Low,Female,Yes,Low,No,Yes,No,No,No
0.7875,0.883333,Medium,Yes,Medium,Medium,Female,No,Low,Yes,Yes,No,Yes,No
0.5875,0.766667,High,Yes,Medium,Low,Female,Yes,Medium,No,Yes,No,Yes,No
0.775,0.7,Medium,No,High,Low,Male,Yes,Low,Yes,Yes,Yes,No,No
0.0625,0.55,High,Yes,Medium,Low,Female,Yes,High,Yes,Yes,Yes,No,No
0.6875,0,High,Yes,Low,Low,Female,Yes,High,Yes,No,No,Yes,No
0.15,0.65,Low,Yes,Medium,Medium,Female,Yes,High,No,Yes,Yes,No,No
0.45,0.183333,High,Yes,Low,Medium,Male,Yes,Medium,No,Yes,No,Yes,No
0.0875,0.1,Medium,No,High,Medium,Male,No,Low,Yes,No,No,Yes,No
0.2125,0.733333,High,No,Low,Medium,Male,No,Medium,No,No,Yes,Yes,No
0.075,0,None,No,Medium,High,Female,No,Medium,No,Yes,No,No,No
0.0375,0.766667,High,No,Low,Medium,Male,Yes,Low,Yes,No,Yes,Yes,No
0.6125,0.4,Low,Yes,Medium,Low,Female,Yes,High,Yes,No,Yes,No,No
0.4875,0.8,Medium,Yes,High,Medium,Male,Yes,High,No,Yes,Yes,No,No
0.925,0.05,None,Yes,High,Medium,Male,No,Medium,No,Yes,Yes,No,No
0.375,0.866667,None,No,Low,High,Male,No,High,No,Yes,No,No,No
0.975,1,Low,Yes,Medium,Medium,Male,No,High,Yes,No,No,No,No
0.2,0.133333,Low,Yes,Low,High,Female,Yes,Low,Yes,No,No,Yes,No
0.9625,0.316667,Medium,No,High,High,Male,No,High,Yes,Yes,No,No,No
0.8375,0.65,None,Yes,High,Low,Female,Yes,Low,Yes,Yes,Yes,Yes,No
0.75,0.266667,Low,No,High,Low,Male,No,Low,Yes,Yes,No,No,No
0.8125,0.816667,High,Yes,Medium,Medium,Female,Yes,Low,No,No,No,No,No
0.45,0.45,None,No,Low,Medium,Female,No,Medium,No,Yes,Yes,No,No
0.625,0.366667,Low,No,Low,Low,Female,No,High,Yes,No,Yes,No,No
0.9875,0.366667,High,Yes,Medium,Low,Male,Yes,Low,No,Yes,Yes,Yes,No
0.2,0.916667,Low,Yes,Low,Low,Male,No,High,Yes,Yes,Yes,No,No
1,0.616667,Low,No,Medium,Medium,Female,Yes,Low,Yes,Yes,No,No,No
0.0125,0.05,Medium,No,Medium,High,Male,No,Low,No,Yes,No,Yes,No
0.175,0.75,Medium,No,Medium,Medium,Female,Yes,Medium,Yes,Yes,No,Yes,No
0.1625,0.516667,High,Yes,High,High,Male,No,High,Yes,No,No,Yes,No
0.1875,1,None,Yes,Low,Low,Male,No,High,No,No,Yes,No,No
0.0375,0.65,High,Yes,Medium,High,Male,Yes,High,Yes,Yes,Yes,No,No
0.55,0.383333,None,Yes,High,Low,Female,Yes,Medium,No,No,Yes,No,No
0.05,0.866667,Low,Yes,Low,Medium,Female,Yes,Medium,No,Yes,Yes,No,No
0.9875,0,Low,Yes,High,High,Female,No,High,No,Yes,Yes,Yes,No
0.5125,0.2,None,No,Low,Medium,Male,Yes,Low,Yes,No,Yes,No,No
0.9625,0.85,Low,Yes,Low,Low,Male,No,High,Yes,Yes,No,No,No
0.1875,0.416667,Medium,No,Medium,High,Female,No,Low,Yes,Yes,No,No,No
0.125,0.133333,Medium,Yes,Medium,Medium,Male,No,Medium,Yes,No,No,Yes,No
0.05,0.233333,High,No,Low,Medium,Female,Yes,Medium,Yes,No,No,No,No
0.8625,0.916667,High,Yes,Low,High,Female,No,Medium,Yes,Yes,Yes,Yes,No
0.125,0.666667,High,No,Medium,Medium,Male,No,High,Yes,No,Yes,Yes,No
0.65,0.633333,Low,Yes,Low,Medium,Female,No,Low,Yes,Yes,No,No,No
0.525,0.4,High,No,Low,High,Female,No,Low,Yes,No,Yes,No,No
0.15,0.283333,Medium,Yes,Medium,High,Female,No,Low,Yes,Yes,No,No,No
0.4625,0.016667,Low,Yes,Low,Low,Male,No,High,No,Yes,No,Yes,No
0.025,0.083333,Low,Yes,Medium,High,Female,Yes,Medium,No,No,Yes,Yes,No
0.9125,0.3,Low,No,High,Low,Male,No,Medium,Yes,No,No,No,No
0.325,0.383333,High,Yes,Low,High,Male,Yes,Medium,No,No,Yes,Yes,No
0.975,0.116667,Medium,No,Medium,High,Male,No,High,Yes,No,No,Yes,No
0.8,0.633333,Low,Yes,Medium,Medium,Male,Yes,Low,No,No,Yes,Yes,No
0.6,0.883333,Medium,No,High,Low,Female,No,Medium,Yes,Yes,Yes,No,No
0.5,0.55,Low,No,Medium,High,Male,No,Medium,No,Yes,No,No,No
0.225,0.1,High,Yes,Low,Low,Female,Yes,Medium,No,Yes,Yes,Yes,No
0.2375,0.616667,High,No,Low,High,Male,Yes,Low,No,No,Yes,No,No
0.7875,0.583333,None,No,Medium,Low,Female,No,Medium,No,Yes,No,Yes,No
0.0125,0.516667,Medium,No,Medium,High,Male,Yes,Low,No,Yes,Yes,No,No
0.675,0.433333,Low,Yes,Medium,Low,Female,Yes,Medium,Yes,Yes,Yes,Yes,No
0.2875,0.516667,Medium,Yes,Medium,High,Male,Yes,High,No,No,No,No,No
0.875,0.066667,Medium,No,Low,High,Female,Yes,High,No,No,No,No,No
0.2375,0.383333,Medium,No,Low,Medium,Male,Yes,Low,No,Yes,Yes,Yes,No
0.9,0.616667,Medium,No,High,High,Female,Yes,Medium,Yes,No,Yes,No,No
0.6,1,None,No,Low,High,Male,No,Low,Yes,Yes,No,No,No
0.5875,0.516667,Low,No,High,Medium,Male,No,Low,No,No,No,No,No
0.8875,0.533333,Low,No,Low,Low,Male,Yes,Low,Yes,Yes,No,Yes,No
0.8125,0.35,High,Yes,Low,Medium,Male,Yes,Low,Yes,No,No,No,No
0.5375,0.366667,None,Yes,High,Low,Male,No,Low,Yes,Yes,No,Yes,No
0.125,0.783333,Medium,No,Low,Low,Female,Yes,Low,Yes,No,Yes,Yes,No
0.05,0.433333,Medium,No,High,Medium,Female,No,Low,No,No,No,No,No
0.9125,0.6,Low,Yes,Medium,High,Male,No,Low,Yes,Yes,Yes,No,No
0.1875,0.433333,Medium,No,High,Medium,Male,Yes,High,No,No,No,No,No
0.1125,0.883333,High,Yes,Low,Low,Female,Yes,Low,No,No,Yes,No,No
0.025,0.466667,Low,No,Low,Low,Female,No,Medium,No,Yes,No,Yes,No
0.85,0.033333,Low,Yes,Low,Low,Female,No,Medium,Yes,Yes,Yes,Yes,No
0.8625,0.416667,None,Yes,High,Low,Female,No,High,Yes,No,No,No,No
1,0.95,None,Yes,High,Medium,Female,No,High,Yes,No,Yes,No,No
0.6125,0.833333,High,No,Medium,High,Male,Yes,High,Yes,No,No,Yes,No
0.975,0.183333,High,No,Medium,Medium,Female,Yes,High,Yes,Yes,Yes,Yes,No
0.05,0.9,High,No,Low,High,Male,No,Low,No,Yes,Yes,Yes,No
0.5375,0.816667,Medium,Yes,Medium,High,Female,No,High,Yes,Yes,No,Yes,No
0.125,0.8,Low,No,High,High,Female,No,Low,No,No,No,No,No
0.9,0.05,Low,Yes,Medium,Medium,Male,Yes,Medium,No,No,Yes,Yes,No
0.3375,0.633333,Low,Yes,High,Low,Female,No,High,Yes,Yes,Yes,Yes,No
0.625,0.6,None,No,High,Low,Female,Yes,Low,Yes,No,No,No,No
0.95,0.6,High,Yes,Low,Low,Male,Yes,Medium,Yes,Yes,No,Yes,No
0.4,0.45,None,Yes,Low,Medium,Female,No,Medium,No,No,No,Yes,No
0.3875,0.433333,Medium,No,Low,Low,Male,No,High,No,No,Yes,Yes,No
0.6125,0.783333,Low,No,Medium,Low,Male,Yes,Low,Yes,Yes,No,No,No
0.025,0.033333,Low,No,High,High,Male,Yes,Medium,Yes,No,Yes,No,No
0.125,0.583333,Low,No,Medium,Low,Female,No,High,Yes,Yes,No,Yes,No
0.15,0.266667,None,No,Low,Low,Female,No,High,Yes,No,Yes,No,No
0.625,0.216667,Medium,No,Low,Medium,Female,Yes,Low,Yes,Yes,No,Yes,No
0.85,0.633333,None,Yes,Medium,High,Male,No,Low,No,Yes,Yes,Yes,No
0.25,0.383333,High,Yes,High,High,Female,No,High,Yes,Yes,Yes,No,No
0.2875,1,Medium,No,High,Low,Male,Yes,Medium,Yes,Yes,No,Yes,No
0.075,0.6,Medium,No,High,Low,Female,No,High,No,No,Yes,No,No
0.425,0.716667,None,Yes,Medium,Medium,Female,No,Medium,No,No,No,Yes,No
0.6625,0.2,None,No,High,Low,Male,No,High,No,No,No,No,No
0.2,0.566667,Medium,Yes,Low,Medium,Male,No,Medium,Yes,No,Yes,No,No
0.3875,0,Medium,No,Low,Low,Female,No,Medium,Yes,No,Yes,Yes,No
0.25,0.55,None,No,Low,Medium,Male,No,Low,No,No,Yes,No,No
0.7375,0.15,None,No,Low,Low,Male,Yes,Low,Yes,No,Yes,No,No
0.75,0.5,Low,Yes,High,Low,Female,No,High,Yes,No,No,Yes,No
0.025,0.933333,None,No,Low,High,Male,Yes,Medium,No,No,No,Yes,No
0.4125,0.266667,Medium,No,Low,Medium,Male,Yes,High,No,No,No,Yes,No
0.725,0.616667,Low,No,Low,Low,Female,No,Low,No,No,Yes,Yes,No
0.925,0.616667,None,No,Low,High,Male,No,High,Yes,Yes,Yes,Yes,No
0.9,0.333333,High,Yes,High,Low,Male,No,Medium,Yes,No,Yes,Yes,No
0.8,0.616667,Low,Yes,Medium,Medium,Female,No,Low,No,Yes,No,No,No
0.6125,0.766667,None,No,High,High,Female,Yes,Medium,No,No,No,No,No
0.9125,0.883333,Medium,No,Medium,Low,Female,Yes,Low,Yes,Yes,No,Yes,No
0.325,0.4,Low,No,Medium,Low,Female,Yes,Low,No,Yes,No,No,No
0.8625,0.866667,Low,No,High,Medium,Male,No,Medium,Yes,No,Yes,No,No
0.2875,0.483333,High,No,Low,High,Male,Yes,High,No,No,No,No,No
0.0875,0.866667,Medium,No,High,Low,Female,No,Medium,Yes,Yes,Yes,No,No
0.7875,0.016667,High,Yes,Medium,Medium,Male,No,High,Yes,Yes,No,No,No
0.2625,0.966667,High,No,Low,Low,Male,No,High,Yes,Yes,Yes,No,No
0.775,0.7,None,No,Low,Low,Male,Yes,Medium,No,Yes,No,No,No
0.625,0.433333,None,No,Medium,Low,Male,Yes,Low,Yes,No,Yes,Yes,No
0.2125,0.4,Medium,Yes,Low,High,Male,No,Medium,Yes,No,No,No,No
0.1375,0.3,High,No,High,Medium,Female,Yes,Low,Yes,Yes,Yes,No,No
0.925,0.883333,High,No,High,High,Male,Yes,Medium,Yes,No,Yes,No,No
0.9625,0.1,Medium,Yes,Low,Medium,Male,No,Low,Yes,No,Yes,No,No
0.8125,0.7,None,Yes,High,High,Male,No,Medium,No,No,No,Yes,No
0.075,0.483333,High,Yes,High,High,Female,No,High,Yes,No,Yes,Yes,No
0.575,0.866667,Medium,No,Low,Low,Female,No,High,Yes,Yes,No,Yes,No
0.6375,0.85,High,No,Medium,High,Female,Yes,Low,No,No,Yes,No,No
0.4375,0.333333,None,Yes,Medium,Low,Female,No,High,No,Yes,No,Yes,No
0.9625,0.833333,High,No,Low,High,Female,Yes,Low,Yes,Yes,Yes,Yes,No
0.7125,0.316667,High,No,Medium,Medium,Female,Yes,High,Yes,No,No,No,No
0.075,0.466667,High,Yes,Medium,High,Female,Yes,High,Yes,Yes,Yes,Yes,No
0.825,0.216667,Low,Yes,Low,High,Female,Yes,High,No,No,Yes,No,No
0.8625,0.483333,None,No,Low,Low,Female,Yes,Medium,Yes,Yes,No,Yes,No
0.925,0.35,None,No,Low,Medium,Male,Yes,Low,Yes,Yes,No,No,No
0.3,0.416667,High,Yes,Medium,Low,Male,No,Medium,Yes,No,No,No,No
0.8875,0.233333,Low,Yes,High,High,Male,Yes,High,Yes,Yes,Yes,No,No
0.2125,0.8,Medium,No,Medium,High,Female,Yes,Low,No,Yes,Yes,No,No
0.7375,0.533333,Medium,Yes,Medium,Low,Female,Yes,High,Yes,Yes,No,No,No
0.3125,0.833333,High,Yes,Low,High,Female,Yes,High,Yes,Yes,Yes,Yes,No
0.675,0.4,None,Yes,Medium,Low,Male,Yes,Medium,Yes,No,Yes,No,No
0.2875,0.533333,Medium,Yes,High,Low,Female,Yes,Medium,Yes,No,Yes,No,No
0.725,0.1,High,No,High,High,Male,No,High,Yes,Yes,Yes,No,No
0.275,0.933333,High,Yes,Medium,High,Female,Yes,High,No,Yes,No,Yes,No
0.7375,0.116667,Low,Yes,High,Low,Female,Yes,High,No,No,No,Yes,No
0.5,0.683333,High,No,Low,High,Male,Yes,Low,No,Yes,Yes,No,No
0.2375,0.066667,Low,No,Low,High,Male,No,Low,Yes,No,Yes,Yes,No
0.6125,0.133333,Low,No,Low,Low,Male,No,High,Yes,No,Yes,No,No
0.55,0.816667,High,Yes,Medium,High,Male,Yes,Medium,No,No,Yes,No,No
0.7875,0.65,None,No,Low,Low,Female,Yes,Medium,No,No,No,Yes,No
0.5,0.333333,Low,Yes,Medium,High,Female,Yes,High,Yes,No,No,Yes,No
0.9875,0.616667,High,Yes,Medium,Medium,Female,No,Medium,No,No,No,Yes,No
0.6,0.75,High,No,High,Low,Male,Yes,Low,Yes,No,No,Yes,No
0.5875,0.1,Medium,No,High,High,Male,No,High,No,Yes,No,No,No
0.4125,0.233333,High,No,Medium,Low,Female,No,Low,Yes,No,No,No,No
0.2375,0.95,None,No,High,High,Female,No,Medium,Yes,No,Yes,Yes,No
0.5,0.416667,None,Yes,Low,Medium,Male,Yes,Low,Yes,No,No,No,No
0.7625,0.116667,Low,No,Medium,High,Female,Yes,Low,Yes,No,Yes,No,No
0.3875,0.45,None,Yes,Medium,Low,Female,Yes,Medium,No,No,Yes,Yes,No
0.5,0.866667,Low,No,Low,High,Male,Yes,Low,Yes,Yes,Yes,No,No
0.9,0.616667,Medium,No,High,High,Female,Yes,Medium,Yes,No,Yes,No,No
0.6125,0.8,None,Yes,Low,Low,Male,Yes,Low,No,Yes,Yes,No,No
0.4625,0.666667,High,No,High,Medium,Female,No,High,Yes,Yes,Yes,No,No
0.2625,0.583333,Medium,Yes,Medium,Low,Male,No,High,No,Yes,Yes,Yes,No
0.2375,0.4,Low,No,Low,Medium,Male,No,High,Yes,No,No,Yes,No
0.15,0.366667,High,No,Low,Low,Female,Yes,Medium,No,No,No,No,No
0.2,0.916667,None,Yes,High,Low,Male,Yes,High,No,No,No,Yes,No
0.65,0.266667,Medium,Yes,Medium,High,Male,No,Low,Yes,No,Yes,Yes,No
0.225,0.366667,Medium,No,Low,Low,Female,Yes,Low,Yes,No,Yes,No,No
0.1,0.75,Low,Yes,Medium,Medium,Female,Yes,Low,Yes,Yes,Yes,Yes,No
0.2375,0.25,Medium,No,Medium,High,Male,No,High,No,Yes,Yes,No,No
0.3875,0.45,High,Yes,Medium,High,Male,No,Medium,No,Yes,Yes,Yes,No
0.45,0.15,Low,No,Medium,High,Male,No,Low,Yes,No,Yes,No,No
0.5375,0.016667,None,Yes,Medium,High,Female,Yes,Low,No,No,No,No,No
0.65,0.116667,None,No,High,High,Male,No,High,No,No,Yes,No,No
0.7,0.9,Low,Yes,Low,Low,Female,Yes,Medium,No,No,Yes,Yes,No
0.8625,0.233333,Low,No,Medium,Low,Female,Yes,Medium,Yes,Yes,Yes,No,No
0.3375,0.183333,Medium,Yes,Low,High,Male,No,High,Yes,Yes,Yes,No,No
0.6125,0.433333,High,Yes,High,High,Female,No,Medium,No,Yes,Yes,No,No
0.65,0.9,None,Yes,Medium,High,Male,No,Medium,No,No,No,Yes,No
0.6625,0.516667,Low,Yes,Low,High,Female,No,Low,Yes,No,Yes,No,No
0.575,0.216667,None,No,High,Low,Male,Yes,Medium,No,No,No,Yes,No
0.175,0.633333,Medium,Yes,Medium,Low,Male,Yes,High,No,Yes,No,No,No
0.7375,0.216667,High,Yes,High,High,Male,No,Medium,Yes,No,No,No,No
0.0875,0.883333,High,Yes,Medium,Medium,Male,No,Medium,No,No,No,No,No
0.175,0.766667,Low,Yes,Low,High,Female,Yes,High,No,No,Yes,No,No
0.5125,0.083333,Low,Yes,Medium,High,Male,Yes,High,No,No,Yes,No,No
0.3875,0.866667,High,Yes,High,High,Female,Yes,Medium,Yes,No,No,No,No
0.8125,0.6,None,Yes,Low,Low,Male,Yes,High,No,No,Yes,No,No
0.325,0.566667,None,No,High,Medium,Male,Yes,High,No,No,No,Yes,No
0.9125,0.75,High,No,High,Medium,Female,No,Low,Yes,No,Yes,Yes,No
0.3625,0.083333,Medium,Yes,Medium,High,Female,No,Medium,Yes,No,No,No,No
1,0.133333,High,No,High,Medium,Female,Yes,Low,No,No,No,Yes,No
0.4875,0.266667,None,Yes,Medium,Low,Female,Yes,Medium,Yes,No,Yes,Yes,No
0.175,0.566667,Low,Yes,Low,Low,Female,Yes,Low,Yes,No,No,No,No
0.1,0.183333,Low,Yes,Medium,High,Female,Yes,Low,No,No,Yes,Yes,No
0.1,0.35,High,Yes,Medium,Low,Male,No,Low,No,Yes,No,Yes,No
0.8,0.783333,Low,No,Low,High,Female,Yes,High,Yes,No,Yes,No,No
0.375,0.983333,High,Yes,Medium,Medium,Male,No,High,No,No,Yes,Yes,No
0.625,0.566667,None,No,Low,High,Female,No,High,Yes,No,No,No,No
0.95,0.833333,Medium,Yes,High,High,Female,No,High,Yes,Yes,Yes,Yes,No
0.5125,0.533333,Low,No,Medium,Low,Female,Yes,Low,No,Yes,Yes,No,No
0.5875,0.483333,High,No,Medium,Medium,Male,No,Low,No,No,No,Yes,No
0.3625,0.616667,None,Yes,High,Low,Male,Yes,Medium,No,No,No,Yes,No
0.4625,0.633333,Medium,Yes,Low,Low,Female,No,Medium,Yes,No,Yes,Yes,No
0.525,0.25,Medium,No,High,Low,Male,No,Low,No,Yes,Yes,No,No
0.2375,0.283333,None,No,High,Medium,Female,Yes,High,No,No,Yes,Yes,No
0.95,0.733333,Low,No,High,Low,Female,Yes,Low,No,No,No,Yes,No
0.7,0.583333,Medium,Yes,High,High,Female,Yes,High,No,No,No,No,No
0.95,0.233333,Medium,No,High,Medium,Male,Yes,High,No,Yes,Yes,No,No
0.7375,0.133333,Low,No,Low,Medium,Male,Yes,High,Yes,Yes,Yes,Yes,No
0.225,0.383333,Low,Yes,Low,Medium,Female,No,Medium,Yes,No,Yes,Yes,No
0.4,0.566667,Low,Yes,Medium,High,Female,Yes,Medium,No,Yes,No,Yes,No
0.2375,0.816667,High,Yes,Low,High,Male,No,Medium,Yes,Yes,Yes,Yes,No
0.65,0.516667,Low,Yes,High,Low,Male,No,Medium,Yes,Yes,No,Yes,No
0.6875,0.666667,High,No,Medium,High,Female,Yes,Medium,Yes,No,No,Yes,No
0.55,0.766667,Low,Yes,Medium,Low,Male,No,High,No,Yes,Yes,No,No
0.8625,0.05,High,No,High,Low,Female,Yes,Medium,No,Yes,Yes,Yes,No
0.4875,0.3,High,No,Low,High,Male,No,Low,Yes,Yes,Yes,Yes,No
0.4875,0.333333,Medium,No,High,Medium,Male,No,Low,No,Yes,Yes,Yes,No
0.8375,0.883333,None,No,Medium,High,Female,Yes,Medium,No,Yes,Yes,No,No
0.3875,0.383333,High,No,Low,Low,Male,No,Medium,No,Yes,Yes,Yes,No
0.8625,0.466667,High,No,Low,Low,Female,No,High,No,No,Yes,No,No
0.7125,0.533333,Low,Yes,Medium,Medium,Male,No,Low,No,No,No,Yes,No
0.2,0.883333,Medium,Yes,Low,Medium,Female,No,Low,Yes,Yes,Yes,Yes,No
0.95,0.783333,High,No,Medium,High,Female,No,High,No,Yes,Yes,Yes,No
0.925,0.75,Low,No,Low,Low,Male,Yes,Medium,No,No,Yes,No,No
0.9125,0.75,High,No,High,Medium,Female,No,Low,Yes,No,Yes,Yes,No
0.8875,0.666667,Medium,Yes,Medium,High,Female,Yes,Medium,Yes,No,Yes,Yes,No
0.4125,0.95,None,Yes,High,Low,Female,Yes,Low,No,Yes,No,No,No
0.1875,0.016667,High,Yes,High,Low,Male,No,Low,No,Yes,No,No,No
0.5625,0.5,Low,No,Medium,Medium,Female,Yes,High,Yes,Yes,No,No,No
0.25,0.083333,High,Yes,Medium,High,Female,No,High,Yes,No,Yes,No,No
0.125,0.466667,Low,Yes,High,Medium,Female,No,Low,No,No,No,No,No
0.15,0.1,High,Yes,High,High,Male,Yes,Medium,No,Yes,Yes,Yes,No
0.475,0.333333,High,No,Medium,Low,Female,Yes,Medium,No,No,Yes,No,No
0.375,0.65,None,Yes,High,High,Female,No,High,No,No,No,No,No
0.9125,0.133333,Medium,Yes,High,Medium,Female,No,High,Yes,Yes,No,No,No
0.8875,0.783333,High,No,High,High,Male,Yes,Medium,Yes,Yes,Yes,Yes,No
0.95,1,High,No,High,Low,Female,Yes,Low,Yes,Yes,No,Yes,No
0.7375,0.9,Medium,No,High,Low,Female,Yes,Low,Yes,No,Yes,No,No
0.425,0.65,Medium,No,Medium,Low,Female,No,High,Yes,Yes,Yes,No,No
0.1375,0.333333,High,No,Low,Medium,Female,No,Low,No,Yes,No,Yes,No
0.7125,0.15,None,No,Low,Medium,Male,No,Medium,No,No,Yes,Yes,No
0.0375,0.966667,Medium,Yes,Medium,Medium,Male,Yes,High,No,No,No,Yes,No
0.2625,0.116667,Medium,No,Low,Low,Female,No,Medium,No,Yes,No,No,No
0.375,0.5,High,Yes,High,High,Female,Yes,High,No,No,No,No,No
0.5875,0.75,Low,Yes,Low,Low,Female,No,High,No,No,No,No,No
1,0.016667,High,Yes,Medium,High,Female,No,Medium,No,No,No,No,No
0.9625,0.166667,None,Yes,Low,Medium,Male,Yes,High,No,Yes,No,No,No
0.8875,0.483333,None,Yes,Medium,Low,Male,No,Medium,No,No,No,No,No
0.475,0.716667,Low,Yes,Medium,Low,Female,No,Medium,No,Yes,Yes,No,No
0.9875,0.316667,Medium,Yes,High,Low,Male,No,Medium,No,No,No,Yes,No
0.2875,0.583333,High,Yes,High,Low,Female,No,Medium,No,No,Yes,Yes,No
0.675,0.15,Medium,No,Low,Medium,Male,No,High,Yes,Yes,No,Yes,No
0.925,0.45,High,Yes,Medium,High,Female,No,High,Yes,Yes,Yes,Yes,No
0.5,0.4,Medium,No,High,High,Male,Yes,Medium,Yes,No,No,Yes,Yes
0.8125,0.716667,High,Yes,High,Low,Female,Yes,Low,No,Yes,Yes,Yes,Yes
0.6875,0.65,Medium,Yes,Low,Low,Male,No,High,Yes,No,No,Yes,Yes
0.825,0.766667,Low,No,Medium,Low,Female,Yes,Medium,No,No,Yes,No,Yes
0.125,0,Low,Yes,High,Medium,Male,No,Low,Yes,No,No,No,Yes
0.3625,0.766667,High,No,Low,Medium,Female,No,High,No,No,Yes,Yes,Yes
0.075,0.583333,Low,No,High,Low,Female,No,High,Yes,Yes,Yes,Yes,Yes
0.65,0.85,Medium,No,Medium,High,Male,No,High,Yes,No,No,Yes,Yes
0.125,0.266667,High,Yes,High,Medium,Female,No,Medium,Yes,No,Yes,Yes,Yes
0.625,0.633333,None,Yes,Low,High,Female,No,High,No,Yes,No,No,Yes
0.3375,0.05,Medium,Yes,High,Medium,Male,Yes,Medium,Yes,Yes,Yes,Yes,Yes
0.6,0.416667,Low,Yes,Medium,Medium,Female,Yes,Low,No,No,No,Yes,Yes
0.325,0.716667,Low,No,High,Medium,Male,No,Low,Yes,No,No,Yes,Yes
0.1875,0.2,None,Yes,Medium,Medium,Female,Yes,Low,No,No,Yes,Yes,Yes
0.8125,0.45,Low,No,Low,High,Female,Yes,High,Yes,No,No,Yes,Yes
0.75,0.766667,Low,No,Medium,Low,Female,No,High,No,No,Yes,No,Yes
0.1125,0.25,None,No,Medium,High,Female,Yes,Medium,Yes,Yes,Yes,No,Yes
0.9625,0.916667,High,Yes,High,High,Male,No,Low,Yes,No,No,No,Yes
0.625,0.55,Low,No,Low,High,Male,No,Medium,Yes,No,No,Yes,Yes
0.9375,0.083333,Low,No,Medium,Low,Female,Yes,Medium,No,Yes,Yes,No,Yes
0.1125,0.483333,High,Yes,Medium,Medium,Female,Yes,High,Yes,No,Yes,Yes,Yes
0.8875,0.966667,None,No,Low,Low,Female,No,Low,Yes,Yes,Yes,Yes,Yes
0.925,0.483333,None,No,Medium,Low,Female,No,Medium,No,Yes,Yes,No,Yes
0.525,0.066667,High,No,Low,High,Male,No,Medium,Yes,No,No,Yes,Yes
0.525,0.583333,Medium,No,Low,Low,Male,Yes,Medium,Yes,Yes,No,Yes,Yes
0.4375,0.933333,High,No,Medium,Low,Male,Yes,High,Yes,Yes,Yes,No,Yes
0.125,0.5,Medium,Yes,Medium,Medium,Male,No,Medium,Yes,Yes,Yes,No,Yes
0.375,0.9,Low,No,High,Low,Male,No,Low,Yes,No,Yes,Yes,Yes
0.5375,0.016667,Medium,No,High,Medium,Male,No,Medium,No,No,No,No,Yes
0.55,0.733333,None,No,Medium,High,Female,No,Medium,Yes,No,No,No,Yes
0.5375,0.566667,Low,Yes,High,Medium,Male,No,Medium,Yes,No,No,No,Yes
0.2875,0.15,High,No,High,Medium,Female,No,Medium,Yes,Yes,No,Yes,Yes
0.5,0.433333,Low,Yes,High,High,Female,Yes,Low,No,Yes,No,No,Yes
0.075,0.416667,Low,No,Low,High,Male,Yes,High,Yes,No,No,No,Yes
0.6125,0.333333,Low,Yes,Medium,High,Male,No,Low,No,Yes,No,No,Yes
0.0625,0.366667,High,Yes,Medium,High,Female,Yes,High,No,Yes,Yes,Yes,Yes
0.125,0.75,Medium,Yes,Medium,Medium,Female,Yes,Low,Yes,No,No,Yes,Yes
0.925,0.266667,Low,Yes,Medium,High,Male,Yes,Medium,Yes,No,No,No,Yes
0.25,0,Low,No,Low,Medium,Male,No,Medium,Yes,No,Yes,No,Yes
0.9375,0.783333,None,Yes,High,High,Female,No,Medium,No,No,Yes,No,Yes
0.825,0.495962,High,Yes,High,Low,Female,No,Medium,Yes,Yes,No,No,Yes
0.775,0.066667,Low,No,Low,Low,Female,Yes,Low,No,No,Yes,No,Yes
0.8625,0.133333,High,Yes,Medium,High,Female,Yes,Medium,Yes,Yes,No,Yes,Yes
0.975,0.433333,Medium,Yes,High,Medium,Female,Yes,High,No,No,Yes,Yes,Yes
0.975,0.433333,Medium,Yes,Low,Medium,Female,No,Low,No,Yes,Yes,No,Yes
0.975,0.116667,Low,Yes,Medium,Medium,Female,No,Low,No,No,Yes,Yes,Yes
0.725,0.016667,Medium,Yes,Low,High,Female,Yes,High,No,Yes,Yes,No,Yes
0.5,0.45,Low,No,High,Low,Male,Yes,Low,No,No,Yes,Yes,Yes
0.75,0.766667,Low,No,Medium,Low,Female,No,High,No,No,Yes,No,Yes
0.1875,0.483333,Low,No,Low,High,Female,Yes,Medium,Yes,Yes,Yes,No,Yes
0.45,0.333333,Medium,Yes,High,High,Male,Yes,Medium,No,No,Yes,Yes,Yes
0.1625,0.05,High,Yes,Low,Low,Female,Yes,High,No,Yes,No,Yes,Yes
0.0125,0.533333,Low,No,High,High,Female,No,High,No,No,No,Yes,Yes
0.9375,0.583333,High,Yes,Low,High,Female,No,Low,No,No,No,No,Yes
0.501778,0.033333,Low,Yes,High,Medium,Male,No,Medium,Yes,Yes,No,No,Yes
0.9375,0.916667,Medium,No,Low,Low,Male,Yes,Medium,No,No,No,No,Yes
0.5125,0.85,Low,No,Low,Low,Female,Yes,High,Yes,No,No,No,Yes
0.1625,0.283333,Medium,No,High,High,Male,No,Medium,Yes,Yes,Yes,No,Yes
0.55,0.55,Medium,No,Medium,Low,Female,Yes,Low,No,No,No,Yes,Yes
0.425,0.666667,High,Yes,Medium,Low,Male,Yes,Low,Yes,Yes,Yes,No,Yes
0.5125,0.883333,High,No,Medium,Medium,Female,No,High,Yes,No,No,No,Yes
0.275,0.233333,Medium,No,Low,Low,Female,No,High,No,Yes,Yes,No,Yes
0.575,0.383333,High,No,Medium,Medium,Male,Yes,Medium,No,No,Yes,Yes,Yes
0.9,0.4,None,Yes,Medium,High,Male,No,High,No,Yes,Yes,No,Yes
0.4875,0.8,Medium,No,Low,Medium,Male,Yes,Low,Yes,No,No,Yes,Yes
0.5625,0.7,High,Yes,High,Medium,Male,No,Low,Yes,No,No,Yes,Yes
0.4,0.85,Low,No,Low,Low,Male,Yes,Low,No,No,No,Yes,Yes
0.925,0.95,Medium,No,Low,Low,Female,Yes,Medium,No,No,Yes,Yes,Yes
0.275,0.666667,High,Yes,Medium,High,Male,No,Medium,Yes,No,No,No,Yes
0.8125,0.816667,None,Yes,Medium,Medium,Female,No,Low,No,Yes,Yes,Yes,Yes
0.9625,0.3,Medium,No,Medium,High,Male,Yes,Low,No,Yes,Yes,No,Yes
0.1125,0.966667,Low,Yes,High,High,Male,No,Low,Yes,Yes,Yes,Yes,Yes
0.8875,0.466667,None,Yes,High,High,Male,Yes,High,No,Yes,Yes,Yes,Yes
0.3,0.066667,None,Yes,Low,High,Male,No,High,Yes,No,No,No,Yes
0.1125,0,Medium,No,High,Low,Male,Yes,High,Yes,Yes,Yes,Yes,Yes
0.7375,0.35,High,No,Medium,Medium,Female,No,High,No,Yes,No,No,Yes
0.9375,0.783333,None,Yes,High,High,Female,No,Medium,No,No,Yes,No,Yes
0.3375,0.1,Medium,Yes,High,Medium,Female,No,Medium,Yes,No,Yes,Yes,Yes
0.2125,0.216667,High,No,High,Low,Male,Yes,Medium,Yes,No,No,Yes,Yes
0.3625,0.3,None,No,Low,High,Male,No,High,Yes,Yes,No,Yes,Yes
0.1375,0.483333,None,No,High,Low,Male,Yes,Low,Yes,Yes,No,No,Yes
0.1,0.066667,Medium,No,High,Medium,Male,Yes,Medium,No,Yes,No,No,Yes
0.125,0.583333,None,No,Low,Low,Male,Yes,Low,Yes,Yes,Yes,Yes,Yes
0.0625,0.133333,High,No,Medium,Low,Male,Yes,Low,No,Yes,Yes,Yes,Yes
0.625,0.4,Medium,No,Medium,Low,Male,No,Low,No,Yes,Yes,Yes,Yes
0.075,0.333333,Low,No,High,High,Female,Yes,High,Yes,No,No,Yes,Yes
0.475,0.383333,None,No,High,Low,Female,Yes,High,No,No,No,Yes,Yes
0.25,0.483333,Low,No,Medium,High,Female,No,High,Yes,No,Yes,No,Yes
0.25,0.516667,Low,Yes,High,Low,Male,Yes,Medium,Yes,Yes,Yes,No,Yes
0.1,0.416667,None,No,Low,High,Male,Yes,Medium,No,No,No,Yes,Yes
0.525,0.833333,Low,Yes,High,Medium,Female,Yes,Low,Yes,Yes,Yes,Yes,Yes
0.2,0.783333,None,Yes,Medium,Medium,Female,No,High,Yes,Yes,No,No,Yes
0.5625,0.016667,Medium,No,Medium,Medium,Female,No,Low,Yes,No,Yes,Yes,Yes
0.1625,0.983333,High,Yes,Medium,Low,Female,No,Low,Yes,Yes,No,No,Yes
0.4,0.216667,Medium,No,Low,Low,Female,Yes,Low,Yes,No,No,Yes,Yes
0.075,1,None,No,High,High,Male,Yes,Low,No,No,Yes,Yes,Yes
0.6375,0.55,None,Yes,Low,Medium,Male,Yes,High,Yes,Yes,No,No,Yes
0.2875,0.2,High,Yes,High,Low,Male,Yes,Medium,No,No,Yes,Yes,Yes
0.6125,0.3,None,Yes,Low,Low,Female,No,Medium,Yes,No,No,No,Yes
0.3375,0.4,Low,Yes,High,Medium,Female,Yes,High,Yes,No,No,No,Yes
0.2125,0.733333,Medium,Yes,Medium,Medium,Female,No,Low,Yes,Yes,Yes,Yes,Yes
0.3875,1,Medium,Yes,Low,Medium,Male,Yes,Medium,Yes,Yes,No,Yes,Yes
0.9375,0.783333,None,Yes,High,High,Female,No,Medium,No,No,Yes,No,Yes
0.8625,0.133333,High,Yes,Medium,High,Female,Yes,Medium,Yes,Yes,No,Yes,Yes
0.3,0.95,None,Yes,Low,Medium,Female,Yes,Low,No,Yes,No,Yes,Yes
0.925,0.3,Low,Yes,Medium,High,Female,Yes,High,Yes,Yes,Yes,No,Yes
0.85,0.983333,High,Yes,High,Medium,Male,Yes,Low,No,No,No,Yes,Yes
0.6375,0,High,No,Medium,High,Female,Yes,Low,Yes,Yes,Yes,Yes,Yes
0.9875,0.95,High,No,High,Medium,Female,No,High,Yes,Yes,No,Yes,Yes
0.975,1,Medium,Yes,Medium,Low,Male,Yes,Low,No,No,Yes,No,Yes
0.525,0.066667,High,No,Low,High,Male,No,Medium,Yes,No,No,Yes,Yes
0.45,0.1,Medium,Yes,High,Low,Male,Yes,Medium,No,No,No,Yes,Yes
0.95,0.25,Medium,No,Low,High,Male,Yes,Medium,Yes,No,Yes,No,Yes
0.1,0.733333,None,Yes,Medium,Low,Female,Yes,Medium,No,Yes,Yes,No,Yes
0.9875,0.283333,Medium,Yes,Low,Medium,Male,Yes,Low,No,Yes,No,Yes,Yes
0.225,1,High,No,High,Medium,Female,No,Low,Yes,No,No,Yes,Yes
0.1,0.416667,None,No,Low,High,Male,Yes,Medium,No,No,No,Yes,Yes
0.8125,0.083333,None,No,High,Low,Male,Yes,Medium,No,No,No,Yes,Yes
0.2125,0.733333,Low,No,High,Low,Male,Yes,Low,Yes,Yes,Yes,Yes,Yes
0.15,0.766667,High,No,Low,Medium,Male,No,Low,No,No,Yes,Yes,Yes
0.8875,0.966667,None,No,Low,Low,Female,No,Low,Yes,Yes,Yes,Yes,Yes
0.5,0.266667,High,No,Low,Low,Female,Yes,Medium,Yes,Yes,Yes,Yes,Yes
0.35,0.15,Low,Yes,Medium,Medium,Female,No,Low,Yes,Yes,No,No,Yes
0.0625,0.816667,High,No,Medium,Medium,Female,No,Medium,Yes,No,Yes,Yes,Yes
0.3875,0.65,None,No,High,High,Female,Yes,Low,Yes,Yes,Yes,Yes,Yes
0.025,0.433333,High,Yes,Medium,Low,Male,Yes,High,Yes,Yes,Yes,No,Yes
0.8,0.916667,High,No,High,Low,Female,Yes,High,Yes,Yes,Yes,Yes,Yes
0.05,0.166667,None,No,High,Low,Female,No,High,No,No,Yes,Yes,Yes
0.8375,0.483333,None,Yes,High,Medium,Female,Yes,Low,Yes,Yes,No,No,Yes
0.875,0.5,Low,No,Low,Low,Female,Yes,High,No,Yes,Yes,No,Yes
0.75,0.5,High,Yes,Medium,High,Male,No,High,Yes,No,Yes,No,Yes
0.6125,0.333333,Low,Yes,Medium,High,Male,No,Low,No,Yes,No,No,Yes
0.7375,0.633333,High,No,Low,High,Male,Yes,High,No,No,No,Yes,Yes
0.425,0.666667,Low,No,High,High,Female,No,Low,Yes,No,Yes,No,Yes
0.375,0.516667,None,Yes,Low,Medium,Female,No,Medium,No,Yes,No,Yes,Yes
0.7875,0.516667,Low,Yes,Medium,Medium,Male,No,High,Yes,No,Yes,Yes,Yes
0.525,0.15,High,No,Medium,Medium,Female,Yes,Low,No,No,No,Yes,Yes
0.175,0.383333,Medium,Yes,High,High,Female,No,Low,No,Yes,Yes,No,Yes
0.325,0.266667,None,Yes,High,Medium,Female,No,Low,No,No,No,Yes,Yes
0.4375,0.283333,High,No,Low,Low,Male,No,Low,Yes,Yes,No,Yes,Yes
0.7875,0.233333,Low,Yes,Low,Low,Male,No,Medium,Yes,Yes,Yes,No,Yes
0.5625,0.133333,Low,No,High,High,Male,No,Low,No,No,No,Yes,Yes
0.875,0.816667,None,Yes,Low,Low,Male,No,Medium,No,No,Yes,No,Yes
0.0125,0.066667,Medium,Yes,Medium,High,Male,Yes,High,Yes,Yes,No,No,Yes
0.9875,0.616667,Medium,No,Low,High,Male,No,High,Yes,Yes,No,No,Yes
0.3375,0.7,High,No,Medium,High,Male,No,High,Yes,Yes,Yes,Yes,Yes
0.55,0.666667,High,No,High,Medium,Female,No,Low,Yes,No,No,Yes,Yes
0.75,0.516667,None,No,Low,Medium,Female,No,Low,No,Yes,Yes,No,Yes
0.8875,0.033333,High,No,Medium,Low,Male,Yes,Low,Yes,No,Yes,Yes,Yes
0.6125,0.333333,Low,Yes,Medium,High,Male,No,Low,No,Yes,No,No,Yes
0.3,0.733333,Medium,Yes,High,Low,Female,Yes,Low,No,Yes,No,Yes,Yes
0.575,0.733333,Medium,Yes,Low,Medium,Female,No,High,Yes,Yes,No,Yes,Yes
0.3375,0.933333,High,Yes,High,Medium,Female,No,Medium,No,No,Yes,Yes,Yes
0.75,0.466667,Medium,No,Medium,Medium,Female,Yes,High,Yes,Yes,Yes,No,Yes
0.3625,0.75,Medium,Yes,Low,Low,Female,Yes,Low,No,No,Yes,Yes,Yes
0.775,0.9,Low,No,High,Low,Male,No,Medium,No,No,No,Yes,Yes
0.95,0.266667,High,Yes,Medium,Low,Male,No,High,Yes,Yes,Yes,Yes,Yes
0.225,0.183333,Medium,Yes,High,Medium,Female,No,Medium,Yes,Yes,No,No,Yes
0.3875,0.3,High,Yes,High,Low,Male,No,Medium,Yes,No,Yes,No,Yes
0.2875,0,Medium,Yes,Low,Medium,Female,Yes,High,No,Yes,No,Yes,Yes
0.1,0.25,Low,No,Medium,Low,Female,No,Low,Yes,No,Yes,No,Yes
0.0375,0.5,Medium,No,High,Medium,Male,Yes,Low,Yes,Yes,Yes,No,Yes
0.3875,0.283333,Medium,Yes,Medium,Low,Male,No,High,No,Yes,Yes,Yes,Yes
0.3,0.066667,None,Yes,Low,High,Male,No,High,Yes,No,No,No,Yes
0.275,0.416667,Medium,Yes,Medium,Medium,Male,No,High,Yes,Yes,Yes,No,Yes
0.7,0.8,High,No,Medium,Low,Male,Yes,Medium,Yes,No,Yes,No,Yes
0.5375,0.666667,None,No,Low,High,Female,Yes,Low,Yes,No,No,Yes,Yes
0.925,0.266667,High,No,High,Low,Female,No,Low,Yes,Yes,Yes,No,Yes
0.7375,0,High,Yes,High,Low,Female,Yes,Low,Yes,Yes,Yes,Yes,Yes
0,0.283333,None,No,Low,Low,Female,Yes,High,Yes,Yes,No,Yes,Yes
0.8625,0.133333,Medium,Yes,Medium,High,Male,No,Medium,Yes,No,No,No,Yes
0.975,0.633333,Medium,Yes,Medium,Low,Male,Yes,Low,No,No,Yes,No,Yes
0.3375,0.416667,Low,Yes,Low,Low,Female,Yes,High,Yes,Yes,No,No,Yes
0.275,0.216667,High,Yes,Medium,High,Female,Yes,Medium,No,No,No,Yes,Yes
0.675,0.233333,Low,No,High,High,Male,Yes,Low,No,No,Yes,Yes,Yes
0.65,0.216667,Medium,No,Low,Low,Male,No,Medium,No,Yes,No,No,Yes
0.275,0.233333,Low,No,Low,Low,Male,No,Medium,No,No,Yes,Yes,Yes
0.825,0.783333,None,No,Medium,Low,Female,No,Low,No,No,Yes,Yes,Yes
0.9875,1,High,Yes,Medium,High,Female,No,Medium,Yes,Yes,No,Yes,Yes
0.825,0.866667,Medium,No,Low,Medium,Male,Yes,High,No,No,No,Yes,Yes
0.7,0.15,High,Yes,Low,Low,Female,Yes,High,No,No,Yes,No,Yes
0.1125,0.666667,High,Yes,Low,High,Female,No,Medium,No,No,No,Yes,Yes
0.475,0.916667,None,Yes,High,Medium,Female,Yes,Medium,Yes,No,No,No,Yes
0.3375,0.966667,High,No,Medium,Low,Female,Yes,High,Yes,Yes,Yes,Yes,Yes
0.325,0.666667,None,Yes,High,Low,Female,Yes,Medium,No,Yes,Yes,Yes,Yes
0.5125,0.483333,Medium,No,Medium,Low,Male,No,Medium,No,No,No,Yes,Yes
0.3875,1,High,Yes,Medium,High,Female,Yes,High,Yes,No,No,No,Yes
0.6875,0.35,None,Yes,Medium,High,Male,Yes,High,No,Yes,Yes,Yes,Yes
0.1,0.4,Medium,No,Low,Medium,Female,Yes,Medium,Yes,No,No,Yes,Yes
0.5125,0.1,Low,Yes,Medium,High,Female,No,Medium,Yes,No,Yes,Yes,Yes
0.725,0.633333,Low,No,Medium,High,Male,Yes,High,Yes,No,No,No,Yes
0.3375,0.983333,Medium,Yes,Medium,Medium,Male,Yes,High,Yes,No,No,Yes,Yes
0.3375,0.4,High,No,Medium,High,Female,Yes,Medium,Yes,Yes,No,No,Yes
0.05,1,High,Yes,Low,Low,Female,Yes,Medium,Yes,No,No,No,Yes
0.3375,0.716667,Low,No,High,High,Female,Yes,Medium,No,Yes,Yes,No,Yes
0.6,0.533333,High,No,Medium,Low,Female,No,Medium,No,No,No,No,Yes
0.8375,0.133333,Medium,Yes,High,Medium,Male,Yes,High,Yes,No,No,No,Yes
0.575,0.75,High,Yes,Low,Medium,Male,Yes,Medium,Yes,No,Yes,Yes,Yes
0.7,0.716667,High,No,High,Medium,Female,Yes,Medium,Yes,Yes,No,Yes,Yes
0.1625,0.583333,High,Yes,Low,Medium,Male,No,Low,No,No,No,Yes,Yes
0.575,0.983333,None,No,Medium,Medium,Female,Yes,Medium,Yes,No,Yes,Yes,Yes
0.775,0.266667,Low,Yes,Medium,Medium,Male,No,High,Yes,No,Yes,No,Yes
0.8,0.516667,High,No,Medium,High,Male,Yes,Medium,Yes,No,Yes,No,Yes
0.05,0.25,Medium,No,High,High,Female,No,High,Yes,No,Yes,No,Yes
0.825,0.05,None,Yes,High,Low,Female,Yes,High,Yes,No,Yes,No,Yes
0.85,0.033333,Medium,Yes,Medium,High,Female,Yes,High,Yes,Yes,Yes,Yes,Yes
0.0375,0.9,High,No,Medium,Low,Female,Yes,Low,No,No,No,Yes,Yes
0.125,0.55,High,No,Low,Medium,Female,No,High,No,No,No,No,Yes
0.5125,0.516667,High,Yes,Low,Medium,Female,Yes,Medium,Yes,No,No,No,Yes
0.75,0.533333,Low,No,High,High,Male,No,Medium,No,No,Yes,Yes,Yes
0.0875,0.683333,None,No,Low,Medium,Male,Yes,Medium,No,No,Yes,No,Yes
0.4,0.666667,Low,Yes,Low,High,Male,Yes,Low,Yes,Yes,Yes,Yes,Yes
0.025,0.6,Low,No,High,High,Female,Yes,Low,No,No,No,Yes,Yes
0.1,0.4,High,No,Low,Medium,Female,Yes,High,Yes,No,Yes,Yes,Yes
0.15,0.15,Medium,No,Medium,Low,Male,No,Medium,No,Yes,No,No,Yes
0.3875,0.616667,Low,No,Medium,Medium,Male,No,High,No,Yes,No,No,Yes
0.95,0.15,Low,Yes,Medium,Medium,Male,No,Medium,No,Yes,No,Yes,Yes
0.35,0.25,Medium,No,Low,Low,Male,Yes,Low,Yes,No,Yes,No,Yes
0.5,0.316667,High,Yes,Low,Low,Female,Yes,High,No,No,Yes,Yes,Yes
0.125,0.916667,Medium,No,Low,High,Female,No,Low,No,Yes,No,Yes,Yes
0.7,0.15,High,Yes,Low,Low,Female,Yes,High,No,No,Yes,No,Yes
0.45,0.45,Low,Yes,High,Medium,Female,No,Medium,No,Yes,No,No,Yes
0.4125,0.533333,Medium,No,High,Low,Male,No,High,Yes,Yes,No,Yes,Yes
0.125,0.433333,Medium,No,Low,Medium,Female,Yes,Medium,No,Yes,No,No,Yes
0.0875,0.816667,Medium,No,Low,Low,Female,No,High,No,Yes,No,No,Yes
0.925,0.083333,High,Yes,Medium,Medium,Female,Yes,Medium,No,Yes,No,No,Yes
0.2875,0.866667,High,Yes,Medium,Low,Female,No,High,Yes,Yes,Yes,No,Yes
0.3,0.616667,High,No,Low,Low,Female,Yes,High,Yes,Yes,Yes,No,Yes
0.2,0.066667,None,Yes,Medium,Medium,Male,Yes,Low,No,Yes,No,No,Yes
0.65,0.55,High,No,High,High,Male,Yes,Medium,Yes,No,No,Yes,Yes
0.8625,0.983333,None,Yes,High,High,Female,No,Low,Yes,Yes,No,Yes,Yes
0.125,0.75,Medium,Yes,Medium,Medium,Female,Yes,Low,Yes,No,No,Yes,Yes
0.7375,0,High,Yes,High,Low,Female,Yes,Low,Yes,Yes,Yes,Yes,Yes
0.6,0.316667,None,No,High,High,Female,Yes,Low,Yes,Yes,Yes,Yes,Yes
0.8625,0.533333,Medium,Yes,High,Low,Male,No,Medium,No,Yes,Yes,No,Yes
0.9875,0.3,High,Yes,Low,High,Male,Yes,Low,Yes,No,No,No,Yes
0.65,0.266667,High,No,High,High,Male,Yes,High,Yes,Yes,Yes,Yes,Yes
0.2,0.1,None,Yes,Medium,Medium,Male,Yes,Low,Yes,Yes,No,Yes,Yes
0.275,0.133333,None,Yes,High,High,Female,No,High,Yes,Yes,No,Yes,Yes
0.175,0.35,Low,No,Medium,High,Male,Yes,High,Yes,Yes,Yes,No,Yes
0.45,0.4,Medium,Yes,Medium,Low,Male,Yes,Medium,No,No,No,No,Yes
0.6,0.9,High,No,High,Medium,Female,No,Medium,No,Yes,Yes,Yes,Yes
0.575,0.783333,High,Yes,Low,Low,Male,No,Medium,No,Yes,Yes,No,Yes
0.05,0.2,Medium,No,Medium,High,Female,No,High,Yes,Yes,Yes,Yes,Yes
0.5375,0.483333,High,No,Medium,High,Female,Yes,Low,No,Yes,No,No,Yes
0.1,0.416667,None,No,Low,High,Male,Yes,Medium,No,No,No,Yes,Yes
0.2875,1,Medium,Yes,High,Low,Male,No,High,Yes,No,No,No,Yes
0.6625,0.766667,Low,No,Low,Medium,Female,No,High,No,No,No,No,Yes
0.275,0.166667,Medium,Yes,High,Medium,Female,No,High,Yes,Yes,No,No,Yes
0.325,0.183333,None,Yes,Medium,Low,Male,No,Medium,Yes,No,No,No,Yes
0.025,0.866667,Low,Yes,Low,Medium,Male,Yes,High,Yes,Yes,No,No,Yes
0.9625,0.166667,Medium,No,Low,High,Female,No,Low,No,Yes,No,Yes,Yes
0.725,0.633333,Low,No,Medium,High,Male,Yes,High,Yes,No,No,No,Yes
0.6,0.616667,Medium,No,Medium,High,Female,No,Low,No,No,No,Yes,Yes
0.1,0.25,Low,No,Medium,Low,Female,No,Low,Yes,No,Yes,No,Yes
0.95,0.383333,Medium,Yes,High,Medium,Female,No,High,No,Yes,Yes,No,Yes
0.4875,0.766667,Low,Yes,Medium,Low,Female,Yes,Medium,Yes,No,Yes,No,Yes
0.3125,0.416667,Low,Yes,High,Medium,Male,Yes,High,Yes,No,No,Yes,Yes
0.4,0.166667,Low,No,Medium,Low,Male,No,High,Yes,Yes,Yes,Yes,Yes
0.7375,0.866667,Medium,No,Medium,Medium,Female,No,Medium,No,Yes,Yes,Yes,Yes
0.1625,0.95,High,Yes,Medium,High,Female,Yes,Low,No,No,Yes,No,Yes
0.575,0.866667,Low,No,Medium,High,Female,Yes,Low,Yes,No,No,Yes,Yes
0.375,0.083333,High,No,Medium,High,Male,No,Low,No,No,No,Yes,Yes
0.1375,0.1,Low,Yes,Low,Medium,Female,Yes,High,No,Yes,No,Yes,Yes
0.45,0.833333,Medium,No,Medium,Medium,Male,No,Low,Yes,No,Yes,No,Yes
0.2625,0.116667,Low,Yes,Low,Medium,Male,Yes,Low,No,Yes,No,Yes,Yes
0.35,0.416667,Low,Yes,Medium,Medium,Female,Yes,Medium,No,Yes,Yes,No,Yes
0.5125,0.883333,High,No,Medium,Medium,Female,No,High,Yes,No,No,No,Yes
0.575,0.35,None,Yes,High,Low,Male,No,Medium,Yes,No,No,No,Yes
0.85,0.316667,Medium,Yes,Medium,Low,Female,Yes,Medium,Yes,No,No,Yes,Yes
0.9875,0.733333,Low,No,Low,Low,Female,No,High,No,Yes,Yes,No,Yes
0.7125,0.066667,Low,Yes,Low,High,Female,Yes,Low,Yes,Yes,Yes,No,Yes
0.7875,0.066667,Medium,No,High,Medium,Male,No,Medium,Yes,No,Yes,Yes,Yes
0.9,0.516667,Medium,Yes,Medium,High,Male,Yes,High,No,No,Yes,Yes,Yes
0.0625,0.616667,High,Yes,High,Low,Female,Yes,Medium,Yes,No,Yes,Yes,Yes
0.0375,0.916667,High,No,Medium,High,Female,Yes,Low,Yes,Yes,Yes,No,Yes
0.5375,0.35,Medium,No,Low,Low,Male,No,High,No,Yes,Yes,No,Yes
0.575,0.783333,High,Yes,Low,Low,Male,No,Medium,No,Yes,Yes,No,Yes
0.425,0.15,High,No,High,High,Male,No,Medium,Yes,No,No,No,Yes
0.0125,0.883333,Medium,No,Low,High,Male,No,Low,Yes,Yes,No,No,Yes
0.1875,0.183333,High,No,Medium,High,Male,No,High,Yes,Yes,Yes,Yes,Yes
0.925,0.316667,Low,No,Medium,High,Male,No,Low,No,No,No,Yes,Yes
0.25,0,Low,No,Low,Medium,Male,No,Medium,Yes,No,Yes,No,Yes
0.625,0.55,None,Yes,Medium,Medium,Female,Yes,Medium,No,Yes,Yes,No,Yes
0.7375,0.866667,Medium,No,Medium,Medium,Female,No,Medium,No,Yes,Yes,Yes,Yes
0.7,0.15,High,Yes,Low,Low,Female,Yes,High,No,No,Yes,No,Yes
0.8625,0.733333,Medium,Yes,High,Medium,Female,No,Low,No,No,No,Yes,Yes
0.275,0.933333,Low,Yes,Low,Low,Male,No,High,No,Yes,Yes,Yes,Yes
0.9,0.116667,Medium,No,High,High,Male,No,Low,No,Yes,No,No,Yes
0.0125,0.066667,Medium,Yes,Medium,High,Male,Yes,High,Yes,Yes,No,No,Yes
0.025,0.033333,High,Yes,High,High,Female,No,Medium,Yes,Yes,No,No,Yes
0.6625,0.466667,None,Yes,Low,Medium,Female,No,Medium,Yes,Yes,Yes,No,Yes
0.3375,0.416667,Low,Yes,Low,Low,Female,Yes,High,Yes,Yes,No,No,Yes
0.775,0.95,High,Yes,Medium,High,Male,Yes,High,Yes,No,Yes,No,Yes
0.5,0.666667,Low,Yes,Medium,Medium,Male,No,Medium,No,No,Yes,Yes,Yes
0.825,0.783333,High,Yes,High,Low,Female,Yes,Medium,Yes,No,Yes,No,Yes
0.25,0.6,High,Yes,Low,Medium,Male,No,Medium,Yes,Yes,Yes,No,Yes
0.4125,0.216667,High,Yes,High,Low,Female,No,Medium,Yes,No,No,Yes,Yes
0.2375,0.816667,Low,Yes,High,Medium,Male,Yes,Low,Yes,No,No,Yes,Yes
0.7625,0.5,Low,No,Medium,High,Male,Yes,High,No,Yes,No,Yes,Yes
0.7625,0.1,High,No,Low,Medium,Male,Yes,Medium,Yes,Yes,Yes,No,Yes
0.4625,0.933333,Medium,Yes,Medium,High,Male,Yes,High,Yes,No,Yes,No,Yes
0.25,0.766667,High,Yes,Medium,High,Male,Yes,Medium,Yes,No,Yes,No,Yes
0.6,0.283333,High,No,High,Medium,Female,No,Low,No,Yes,Yes,No,Yes
0.6875,0.683333,None,Yes,High,High,Female,Yes,Low,No,Yes,No,Yes,Yes
0.2875,0.383333,None,No,Medium,High,Female,Yes,High,No,No,Yes,No,Yes
0.575,0.116667,None,Yes,Medium,Medium,Male,No,High,No,Yes,Yes,Yes,Yes
0.4,0.883333,None,Yes,Medium,Low,Male,No,Low,Yes,No,No,Yes,Yes
0.5375,0.233333,None,Yes,Medium,High,Female,No,High,No,Yes,Yes,Yes,Yes
0,0.05,Low,Yes,Low,High,Male,Yes,Medium,Yes,Yes,Yes,Yes,Yes
0.5625,0.3,None,No,High,Medium,Male,Yes,Low,Yes,No,Yes,No,Yes
0.725,0.5,None,No,Medium,Low,Male,Yes,Medium,Yes,No,Yes,Yes,Yes
0.55,0.583333,Medium,Yes,Medium,Low,Female,No,High,No,Yes,Yes,No,Yes
0.4,0.8,None,Yes,High,Low,Female,Yes,Low,No,No,Yes,No,Yes
0.05,0.233333,Low,Yes,Low,High,Male,Yes,Low,No,Yes,Yes,Yes,Yes
0.025,0.583333,None,No,Low,Low,Female,No,Low,No,No,No,Yes,Yes
0.425,0.066667,Medium,No,Medium,Medium,Male,No,Low,No,Yes,No,Yes,Yes
0.125,0.866667,Medium,No,Medium,High,Male,Yes,Low,No,Yes,Yes,No,Yes
0.9,0.75,Medium,No,Medium,Medium,Male,No,Low,No,No,Yes,No,Yes
0.2875,0.75,Low,Yes,High,Medium,Male,No,Medium,No,No,No,Yes,Yes
0.0875,0.566667,None,Yes,Low,High,Female,Yes,Low,No,No,No,Yes,Yes
0.8,0.333333,Low,Yes,Medium,High,Male,Yes,High,Yes,Yes,No,Yes,Yes
0.525,0.55,Low,No,Low,Low,Male,Yes,High,Yes,No,Yes,No,Yes
0.15,0.366667,Low,Yes,Medium,High,Female,No,Low,No,No,No,Yes,Yes
0.3875,0.616667,Low,No,Medium,Medium,Male,No,High,No,Yes,No,No,Yes
0.3875,0.383333,Medium,No,High,High,Female,No,High,No,No,No,No,Yes
0.2125,0.733333,Medium,Yes,Medium,Medium,Female,No,Low,Yes,Yes,Yes,Yes,Yes
0.075,0.2,High,Yes,Low,Medium,Male,Yes,High,Yes,Yes,Yes,No,Yes
0.3875,0.7,Medium,No,High,Medium,Female,Yes,High,No,No,Yes,Yes,Yes
0.3375,0.05,Medium,Yes,High,Medium,Male,Yes,Medium,Yes,Yes,Yes,Yes,Yes
0.9625,0.05,High,No,High,Low,Male,No,Medium,Yes,No,No,No,Yes
0.7625,0.633333,Low,No,Low,Medium,Female,Yes,Low,Yes,No,No,No,Yes
0.775,0.716667,High,Yes,High,High,Female,No,Medium,Yes,No,Yes,Yes,Yes
0.825,0.866667,Medium,No,Low,Medium,Male,Yes,High,No,No,No,Yes,Yes
0.8625,0.833333,None,Yes,High,Medium,Female,No,Low,No,No,No,No,Yes
0.275,0.216667,Low,No,Low,Medium,Female,No,Medium,No,Yes,No,No,Yes
0.775,0.133333,High,No,Low,High,Female,Yes,Low,No,No,Yes,Yes,Yes
0.05,1,High,Yes,Low,Low,Female,Yes,Medium,Yes,No,No,No,Yes
0.55,0.616667,Medium,Yes,Medium,Medium,Female,Yes,Low,Yes,Yes,Yes,No,Yes
0.8,0.766667,Low,Yes,High,Medium,Female,No,Low,Yes,No,Yes,Yes,Yes
0.7875,0.05,Medium,No,Medium,High,Female,Yes,Medium,No,No,Yes,Yes,Yes
0.3,0.75,Medium,No,High,Low,Male,No,High,Yes,Yes,Yes,Yes,Yes
0.15,0.833333,Medium,No,High,High,Female,Yes,Low,No,Yes,No,Yes,Yes
0.775,0.816667,Medium,No,Low,High,Female,No,Medium,Yes,Yes,No,No,Yes
0.15,0.533333,Low,Yes,High,Low,Male,No,Medium,No,Yes,Yes,Yes,Yes
0.6,0.95,High,No,Medium,Low,Male,Yes,High,No,No,Yes,No,Yes
0.175,0.25,High,Yes,Low,Medium,Female,No,Low,Yes,Yes,No,No,Yes
0.4,0.316667,High,Yes,Low,High,Female,Yes,High,Yes,Yes,Yes,No,Yes
0.6875,0.6,Medium,Yes,Medium,Low,Male,Yes,High,Yes,Yes,No,No,Yes
0.35,0.25,Medium,No,Low,Low,Male,Yes,Low,Yes,No,Yes,No,Yes
0.4125,0.766667,High,No,Medium,Medium,Female,Yes,High,Yes,No,No,No,Yes
0.275,0.216667,Low,No,Low,Medium,Female,No,Medium,No,Yes,No,No,Yes
0.8,0.9,High,Yes,Low,Low,Female,No,Low,No,No,No,Yes,Yes
0.2375,0.05,Medium,Yes,High,Medium,Male,No,Medium,Yes,No,Yes,Yes,Yes
0.325,0.55,High,No,Medium,Low,Female,Yes,High,No,Yes,No,No,Yes
0.8,0.416667,High,No,Medium,Medium,Male,Yes,High,No,No,No,Yes,Yes
0.501778,0.066667,High,No,Medium,Medium,Female,Yes,High,Yes,No,No,Yes,Yes
0.475,0.55,High,Yes,High,High,Male,No,High,No,No,Yes,Yes,Yes
0.45,0.65,Low,Yes,High,High,Female,Yes,High,Yes,Yes,No,Yes,Yes
0.1875,0.15,Low,No,Low,Low,Male,Yes,Medium,Yes,No,No,No,Yes
0.5625,0.7,High,Yes,High,Medium,Male,No,Low,Yes,No,No,Yes,Yes
1,0.95,High,No,High,Low,Female,Yes,Low,No,Yes,Yes,Yes,Yes
0.3875,0.166667,None,Yes,Low,Low,Female,No,Low,Yes,No,Yes,No,Yes
0.475,0.783333,None,Yes,High,Low,Male,No,Medium,No,No,Yes,Yes,Yes
0.05,0.216667,Medium,Yes,Low,High,Female,No,Low,Yes,No,Yes,No,Yes
0.5625,0.183333,Low,Yes,Medium,High,Male,Yes,Low,No,No,Yes,Yes,Yes
0.5125,0.883333,Low,No,High,Low,Male,No,High,Yes,Yes,No,Yes,Yes
0.225,0.633333,None,Yes,High,High,Female,No,Low,No,No,Yes,No,Yes
0.0875,0.533333,Low,Yes,High,High,Male,Yes,Medium,No,No,Yes,No,Yes
0.775,0.016667,Low,Yes,High,Medium,Female,No,Low,No,No,Yes,No,Yes
0.6875,0.95,Medium,Yes,Medium,Medium,Male,No,Medium,No,No,Yes,Yes,Yes
0.375,0.833333,High,Yes,Low,Low,Female,No,High,Yes,No,No,No,Yes
0.3875,0.366667,Low,No,Medium,Low,Male,Yes,Low,Yes,Yes,Yes,No,Yes
0.9625,0.25,None,No,Medium,Low,Female,Yes,High,Yes,No,No,No,Yes
0.5875,1,High,No,High,High,Male,No,High,No,No,Yes,Yes,Yes
0.825,0.533333,None,Yes,Low,Low,Female,Yes,High,No,No,Yes,No,Yes
0.5,0.883333,None,Yes,Low,High,Female,Yes,High,No,No,No,No,Yes
0.525,0.583333,Medium,No,Low,Low,Male,Yes,Medium,Yes,Yes,No,Yes,Yes
0.85,0.933333,None,No,Low,Low,Male,Yes,Low,Yes,Yes,Yes,Yes,Yes
0.7625,0.483333,None,Yes,Low,High,Female,No,Low,No,Yes,No,No,Yes
0.725,0.5,Medium,No,Low,High,Female,Yes,Low,Yes,No,Yes,No,Yes
0.8125,0.75,Low,Yes,Low,Medium,Female,Yes,High,Yes,Yes,No,Yes,Yes
0.0875,0.616667,High,No,High,Medium,Female,No,Low,Yes,No,No,Yes,Yes
0.2125,0.4,None,No,Medium,High,Male,Yes,Medium,No,No,No,No,Yes
0.8625,0.85,High,Yes,High,Medium,Male,Yes,High,Yes,No,No,No,Yes
0.4625,0.783333,Low,No,High,High,Female,No,Medium,Yes,Yes,No,Yes,Yes
0.55,0.166667,High,Yes,Medium,Medium,Female,Yes,Low,Yes,Yes,No,No,Yes
0.625,0.55,High,Yes,Medium,Low,Male,No,High,No,No,No,No,Yes
0.275,0.883333,Medium,Yes,High,High,Female,Yes,Medium,Yes,Yes,No,Yes,Yes
0.7,0.766667,High,No,Medium,Medium,Female,No,Medium,No,Yes,Yes,No,Yes
0.1125,0.25,None,No,Medium,High,Female,Yes,Medium,Yes,Yes,Yes,No,Yes
0.45,0.35,Low,Yes,Medium,High,Male,Yes,High,No,No,Yes,Yes,Yes
0.6125,0.466667,Medium,No,Medium,Medium,Female,Yes,High,No,Yes,Yes,Yes,Yes
0.7625,0.666667,None,Yes,Low,High,Male,Yes,High,No,Yes,No,No,Yes
0.7875,0.8,Low,No,Medium,High,Female,No,Medium,No,No,Yes,No,Yes
0.15,0.766667,High,Yes,Medium,High,Female,No,Low,Yes,Yes,No,Yes,Yes
0.15,0.916667,None,No,High,Medium,Female,No,High,Yes,Yes,Yes,No,Yes
0.75,0.016667,High,Yes,Medium,High,Female,Yes,Low,No,Yes,No,No,Yes
0.9125,0.616667,Low,No,High,Low,Male,Yes,High,Yes,Yes,Yes,Yes,Yes
0.3375,0.966667,High,No,Medium,Low,Female,Yes,High,Yes,Yes,Yes,Yes,Yes
0.925,0.316667,Low,No,Medium,High,Male,No,Low,No,No,No,Yes,Yes
0.6375,0.75,None,No,Low,Medium,Female,Yes,Low,No,Yes,Yes,Yes,Yes
0.9,0.4,None,Yes,Medium,High,Male,No,High,No,Yes,Yes,No,Yes
0.6875,0.6,Medium,Yes,Medium,Low,Male,Yes,High,Yes,Yes,No,No,Yes
0.6375,0.5,Low,Yes,Medium,Low,Female,Yes,High,No,No,No,Yes,Yes
0.1625,0.233333,Medium,Yes,Medium,Medium,Female,Yes,Low,No,Yes,Yes,No,Yes
0.675,0.616667,None,Yes,Low,High,Male,Yes,Medium,Yes,Yes,Yes,No,Yes
0.25,0.116667,Low,Yes,Low,Medium,Female,Yes,High,Yes,No,No,Yes,Yes
0.05,0.05,Medium,Yes,Medium,Medium,Male,No,Low,No,Yes,No,No,Yes
0.975,0.7,Low,No,High,Low,Female,No,Medium,No,Yes,No,Yes,Yes
0.175,0.916667,Low,Yes,Low,Medium,Female,Yes,High,Yes,No,Yes,Yes,Yes
0.6625,0.683333,Medium,Yes,Medium,High,Female,No,Low,No,Yes,No,No,Yes
0.2625,0.55,Medium,Yes,Medium,Low,Female,Yes,Low,No,Yes,Yes,Yes,Yes
0.725,0.2,Low,Yes,Low,Low,Female,No,Medium,No,Yes,No,Yes,Yes
0.0625,0.616667,High,Yes,High,Low,Female,Yes,Medium,Yes,No,Yes,Yes,Yes
0.35,0.783333,None,Yes,High,Medium,Male,No,High,No,No,No,No,Yes
0.0375,0.333333,High,No,High,High,Female,No,Medium,No,No,Yes,No,Yes
0.375,0.233333,Low,Yes,Low,High,Male,No,Medium,No,No,No,No,Yes
0.1625,0.483333,Medium,Yes,Low,Medium,Female,Yes,Medium,Yes,Yes,No,Yes,Yes
0.075,0.283333,Medium,No,High,Low,Female,Yes,Medium,No,No,Yes,Yes,Yes
0.3375,0.25,High,Yes,Low,High,Female,No,Low,No,No,Yes,Yes,Yes
0.575,0.116667,Medium,Yes,Low,Medium,Male,No,Low,No,No,No,No,Yes
0.8625,0.833333,None,Yes,High,Medium,Female,No,Low,No,No,No,No,Yes
0.5,0.95,High,No,Medium,Medium,Male,Yes,Low,Yes,Yes,No,No,Yes
0.1875,0.633333,High,Yes,Medium,High,Female,Yes,Medium,Yes,No,Yes,Yes,Yes
0.1375,0.1,High,No,Medium,Low,Male,Yes,High,No,Yes,Yes,Yes,Yes
0.65,0.716667,Medium,No,Low,Low,Male,Yes,High,Yes,Yes,No,No,Yes
0.1,0.916667,Low,Yes,High,Medium,Male,No,Low,No,No,Yes,Yes,Yes
0.9,0.2,Low,Yes,High,High,Female,No,Medium,No,No,No,Yes,Yes
0.9375,0.283333,High,No,High,Low,Female,Yes,Low,No,Yes,Yes,No,Yes
0.2375,0.05,Medium,Yes,High,Medium,Male,No,Medium,Yes,No,Yes,Yes,Yes
0.625,0.033333,None,Yes,Medium,Low,Male,Yes,Medium,Yes,Yes,Yes,No,Yes
0.501778,0.6,None,No,High,Medium,Female,No,Medium,Yes,No,No,Yes,Yes
0.3,0.116667,Low,Yes,Low,High,Male,Yes,Medium,Yes,No,Yes,No,Yes
0.75,0.166667,High,No,Medium,Medium,Male,Yes,Medium,Yes,No,Yes,Yes,Yes
0.45,0.25,None,No,High,High,Male,Yes,Medium,No,No,Yes,No,Yes
0.5875,0.9,Low,No,High,High,Female,Yes,Low,Yes,Yes,Yes,No,Yes
0.7625,0.466667,High,No,High,High,Male,No,Medium,No,Yes,No,Yes,Yes
0.775,0.066667,Low,No,Low,Low,Female,Yes,Low,No,No,Yes,No,Yes
0.1125,0.966667,Low,Yes,High,High,Male,No,Low,Yes,Yes,Yes,Yes,Yes
0.8875,0.033333,High,No,Medium,Low,Male,Yes,Low,Yes,No,Yes,Yes,Yes
0.125,0.75,Medium,Yes,Medium,Medium,Female,Yes,Low,Yes,No,No,Yes,Yes
0.8125,0.783333,Medium,Yes,Medium,Low,Female,Yes,Medium,Yes,No,No,Yes,Yes
0.45,0.1,Low,Yes,High,Low,Male,Yes,High,No,Yes,No,Yes,Yes
0.475,0.883333,Low,No,High,Medium,Male,Yes,Medium,No,No,No,Yes,Yes
0.8375,0.083333,High,Yes,Medium,Low,Male,Yes,Low,Yes,No,Yes,Yes,Yes
0.8625,0.183333,Low,Yes,High,High,Female,No,Low,No,No,Yes,Yes,Yes
0.15,0.416667,Low,No,Medium,Medium,Male,No,Medium,Yes,No,Yes,Yes,Yes
0.575,0.733333,Medium,Yes,Low,Medium,Female,No,High,Yes,Yes,No,Yes,Yes
0.5875,0.9,Low,No,High,High,Female,Yes,Low,Yes,Yes,Yes,No,Yes
0.35,0.416667,Low,Yes,Medium,Medium,Female,Yes,Low,No,No,Yes,Yes,Yes
0.5375,0.3,High,No,Low,Medium,Female,Yes,Low,No,No,Yes,Yes,Yes
0.3,0.733333,Medium,Yes,High,Low,Female,Yes,Low,No,Yes,No,Yes,Yes
0.35,0.25,Medium,No,Low,Low,Male,Yes,Low,Yes,No,Yes,No,Yes
0.1625,0.55,Medium,No,Medium,Low,Male,No,High,Yes,No,No,No,Yes
0.3375,0.983333,Medium,Yes,Medium,Medium,Male,Yes,High,Yes,No,No,Yes,Yes
0.5875,0.916667,Medium,Yes,Medium,Low,Male,Yes,Medium,Yes,Yes,No,No,Yes
0.5875,0.633333,None,Yes,High,Low,Male,Yes,High,No,Yes,Yes,No,Yes
0.0375,0.366667,None,No,Low,Medium,Male,No,Medium,Yes,Yes,No,No,Yes
0.325,0.833333,Medium,No,High,High,Female,Yes,Low,No,No,No,No,Yes
0.5625,0.366667,None,No,Medium,Low,Female,No,Medium,Yes,Yes,No,Yes,Yes
0.1375,0.683333,High,Yes,Low,Low,Female,Yes,Medium,No,No,Yes,No,Yes
0.775,0.883333,Low,No,Medium,Medium,Male,Yes,Low,Yes,Yes,Yes,Yes,Yes
0.95,0.1,Medium,No,High,Medium,Male,No,High,Yes,Yes,No,Yes,Yes
0.1375,0.5,None,No,Low,Low,Female,No,Medium,No,Yes,Yes,No,Yes
0.2,0.216667,High,Yes,Low,Low,Female,No,Low,No,No,No,No,Yes
0.4375,0.766667,High,No,High,Low,Female,Yes,High,No,Yes,Yes,Yes,Yes
0.7875,0.3,None,Yes,Medium,Low,Female,Yes,High,Yes,Yes,Yes,No,Yes
0.725,0.433333,Low,Yes,Low,High,Female,Yes,Low,Yes,Yes,No,No,Yes
0.4125,0.583333,High,No,Medium,Medium,Male,Yes,Medium,Yes,Yes,Yes,No,Yes
0.575,0.816667,Medium,Yes,Low,Medium,Male,Yes,High,No,Yes,Yes,Yes,Yes
0.325,0.083333,High,Yes,Medium,Low,Female,No,Low,No,Yes,No,No,Yes
0.8625,0.983333,None,Yes,High,High,Female,No,Low,Yes,Yes,No,Yes,Yes
0.2375,0.533333,Low,Yes,Low,High,Male,No,Low,No,Yes,Yes,No,Yes
0.2875,0.35,None,Yes,Low,Low,Female,No,Medium,Yes,No,Yes,Yes,Yes
0.175,0.25,High,Yes,Low,Medium,Female,No,Low,Yes,Yes,No,No,Yes
0.025,0.75,High,Yes,Medium,Low,Male,Yes,High,No,Yes,No,No,Yes
0.0375,0.9,High,No,Medium,Low,Female,Yes,Low,No,No,No,Yes,Yes
0.25,1,Medium,No,High,High,Female,No,Medium,No,Yes,Yes,No,Yes
0.75,0.15,Medium,No,Low,Medium,Male,Yes,High,No,Yes,Yes,No,Yes
0.1375,0.366667,None,No,High,High,Male,No,High,Yes,No,No,No,Yes
0.9875,0.283333,Low,No,Low,Medium,Male,No,Low,Yes,Yes,Yes,No,Yes
0.15,0.066667,High,Yes,Low,Low,Female,Yes,Medium,No,Yes,No,No,Yes
0.1125,0.416667,None,Yes,Medium,Low,Female,Yes,Low,No,Yes,No,Yes,Yes
0,0.7,High,No,High,High,Male,Yes,Medium,No,Yes,Yes,No,Yes
0.1875,0.866667,Medium,No,Low,Medium,Female,No,Medium,No,No,No,Yes,Yes
0.9375,0,Low,No,Low,High,Female,Yes,Medium,Yes,Yes,Yes,No,Yes
0.325,0.2,Medium,No,Low,Medium,Female,No,High,No,No,Yes,Yes,Yes
0.0375,0.583333,None,Yes,Low,Low,Female,Yes,High,No,Yes,No,Yes,Yes
0.4875,0.95,Low,No,Low,Low,Male,No,High,Yes,Yes,No,No,Yes
0.775,0.266667,Low,Yes,Medium,Medium,Male,No,High,Yes,No,Yes,No,Yes
0.675,0.9,Medium,Yes,Medium,Low,Female,Yes,Low,No,Yes,No,Yes,Yes
0.475,0.383333,None,No,High,Low,Female,Yes,High,No,No,No,Yes,Yes
0.8625,0.983333,None,Yes,High,High,Female,No,Low,Yes,Yes,No,Yes,Yes
0.375,0.416667,Medium,Yes,High,High,Male,Yes,High,Yes,No,No,No,Yes
0.625,0.433333,None,No,High,High,Male,No,High,No,No,No,Yes,Yes
0.3,0.633333,High,Yes,Low,High,Male,No,Medium,Yes,Yes,No,No,Yes
0.375,0.416667,Medium,Yes,High,High,Male,Yes,High,Yes,No,No,No,Yes
0.325,0.2,Medium,No,Low,Medium,Female,No,High,No,No,Yes,Yes,Yes
0.2375,0.05,Medium,Yes,High,Medium,Male,No,Medium,Yes,No,Yes,Yes,Yes
0.4,0.216667,Medium,No,Low,Low,Female,Yes,Low,Yes,No,No,Yes,Yes
0.5,0.133333,Low,No,Low,High,Female,Yes,Medium,Yes,Yes,Yes,Yes,Yes
0.125,0,High,No,Medium,High,Male,Yes,Low,Yes,Yes,Yes,No,Yes
0.975,0.65,None,No,Medium,Medium,Female,No,Medium,No,No,Yes,No,Yes
0.525,0.683333,Low,Yes,Low,High,Male,No,Medium,No,Yes,Yes,Yes,Yes
0.1875,0.1,None,No,High,High,Male,Yes,Medium,Yes,No,No,Yes,Yes
0.4625,0.083333,None,Yes,High,Low,Male,Yes,Medium,No,Yes,No,Yes,Yes
0.475,0.883333,Low,No,High,Medium,Male,Yes,Medium,No,No,No,Yes,Yes
0.125,0.133333,Medium,Yes,High,High,Female,No,Low,Yes,No,No,No,Yes
0.1875,0.7,Medium,No,Low,Low,Male,Yes,High,Yes,Yes,Yes,No,Yes
0.0125,0.716667,None,Yes,High,High,Male,No,Low,No,No,No,No,Yes
0.6625,0.516667,None,No,Medium,Low,Female,No,High,Yes,Yes,Yes,Yes,Yes
0.5625,0,Medium,Yes,Low,Low,Male,No,Medium,Yes,No,No,No,Yes
0.225,0.75,Medium,No,High,High,Female,No,Medium,Yes,Yes,No,Yes,Yes
0.3375,0.416667,Low,Yes,Low,Low,Female,Yes,High,Yes,Yes,No,No,Yes
0.475,0.8,Low,No,Medium,Low,Male,No,Low,Yes,No,Yes,Yes,Yes
0.85,0.716667,High,Yes,Medium,Low,Female,No,Medium,No,No,Yes,No,Yes
0.525,0.55,Low,No,Low,Low,Male,Yes,High,Yes,No,Yes,No,Yes
0.5,0.916667,High,Yes,High,High,Female,No,Low,Yes,Yes,Yes,Yes,Yes
0.9875,0.783333,None,Yes,High,Low,Female,No,High,No,Yes,No,No,Yes
0.825,0.495962,High,Yes,High,Low,Female,No,Medium,Yes,Yes,No,No,Yes
0.4875,0.15,None,Yes,Medium,High,Female,Yes,Medium,No,Yes,Yes,No,Yes
0.5125,0.516667,High,Yes,Low,Medium,Female,Yes,Medium,Yes,No,No,No,Yes
0.825,0.35,None,No,High,Low,Female,No,High,No,Yes,No,No,Yes
0.7625,0.666667,None,No,Low,Medium,Female,No,Low,No,No,Yes,Yes,Yes
0.5625,0.516667,None,Yes,High,High,Male,Yes,Low,Yes,Yes,Yes,No,Yes
0.7875,0.8,Medium,No,Medium,Low,Male,No,Low,No,No,No,Yes,Yes
0.6625,0.433333,High,Yes,High,High,Female,Yes,Medium,Yes,Yes,Yes,Yes,Yes
0.825,0.916667,Low,Yes,Low,Medium,Female,Yes,Low,Yes,Yes,No,No,Yes
0.4375,0.183333,Medium,Yes,Medium,Low,Female,Yes,Low,No,No,Yes,No,Yes
0.7625,0.6,None,Yes,Medium,Medium,Female,Yes,Medium,Yes,Yes,No,No,Yes
0.7375,0.033333,Medium,No,High,High,Female,No,Low,No,Yes,No,Yes,Yes
0.825,0.783333,High,Yes,Low,Low,Female,No,Low,Yes,No,Yes,Yes,Yes
0.975,0.85,High,Yes,Low,Medium,Female,No,Medium,No,No,Yes,No,Yes
0.6375,0.9,High,No,High,High,Male,Yes,High,No,Yes,No,No,Yes
0.2375,0.316667,Low,Yes,Low,Low,Female,No,High,No,No,No,No,Yes
0.2125,0.4,None,No,Medium,High,Male,Yes,Medium,No,No,No,No,Yes
0.075,0.2,High,Yes,Low,Medium,Male,Yes,High,Yes,Yes,Yes,No,Yes
0.4375,0.183333,High,Yes,Medium,Low,Male,Yes,Medium,No,Yes,No,No,Yes
0.45,0.4,High,No,Low,Medium,Female,Yes,High,No,Yes,Yes,No,Yes
0.225,0.6,Low,No,Medium,Medium,Female,Yes,High,Yes,No,No,Yes,Yes
0.7625,0.1,High,No,Low,Medium,Male,Yes,Medium,Yes,Yes,Yes,No,Yes
0.325,0.183333,None,Yes,High,Medium,Female,No,Medium,No,Yes,Yes,No,Yes
0.8125,0.266667,High,Yes,Low,High,Female,No,Low,Yes,No,No,Yes,Yes
0.0125,0.533333,Low,No,High,High,Female,No,High,No,No,No,Yes,Yes
0.05,0.666667,Low,Yes,Medium,High,Male,No,Low,No,Yes,No,Yes,Yes
0.9625,0.05,None,No,Medium,Medium,Female,No,Low,No,No,Yes,Yes,Yes
0.8125,0.483333,High,Yes,Medium,Low,Male,No,Medium,No,No,Yes,No,Yes
0.425,0.633333,Low,Yes,Medium,High,Female,Yes,High,No,No,No,Yes,Yes
0.9125,0.733333,High,No,Low,High,Female,No,Low,No,No,Yes,No,Yes
0.15,0.45,Medium,No,Low,High,Female,No,High,No,No,Yes,No,Yes
0.7625,0.4,Medium,Yes,High,Medium,Female,No,High,No,No,Yes,No,Yes
0.1125,0.483333,High,Yes,Medium,Medium,Female,Yes,High,Yes,No,Yes,Yes,Yes
0.4125,0.216667,High,No,High,Low,Female,No,Low,No,No,Yes,Yes,Yes
0.85,0.883333,Medium,Yes,Medium,Medium,Male,Yes,Medium,No,Yes,Yes,Yes,Yes
0.275,0.216667,High,Yes,Medium,High,Female,Yes,Medium,No,No,No,Yes,Yes
0.4875,0.35,None,Yes,High,Low,Female,Yes,Medium,No,Yes,Yes,No,Yes
0.825,0.35,None,No,High,Low,Female,No,High,No,Yes,No,No,Yes
0.1875,0.15,Low,No,Low,Low,Male,Yes,Medium,Yes,No,No,No,Yes
0.2,0.5,Low,Yes,Low,Low,Male,Yes,Low,No,No,No,No,Yes
0.875,0.7,Medium,Yes,Low,Low,Male,No,High,Yes,No,Yes,No,Yes
0.825,0.866667,Medium,No,Low,Medium,Male,Yes,High,No,No,No,Yes,Yes
0.075,0.833333,None,No,Low,High,Male,Yes,High,Yes,Yes,No,Yes,Yes
0.1375,0.533333,Low,Yes,Medium,Medium,Male,No,Low,Yes,Yes,No,No,Yes
0.9625,0.166667,Medium,No,Low,High,Female,No,Low,No,Yes,No,Yes,Yes
0.0625,0.383333,Medium,No,Low,High,Male,No,Low,Yes,No,No,Yes,Yes
0.7625,0.466667,High,No,High,High,Male,No,Medium,No,Yes,No,Yes,Yes
0.6,0.016667,Low,No,Low,Medium,Female,No,High,Yes,No,Yes,Yes,Yes
0.425,0.166667,Medium,No,High,High,Male,No,Medium,Yes,Yes,Yes,No,Yes
0.175,0.083333,High,Yes,Low,Medium,Male,No,Low,Yes,No,No,Yes,Yes
0.4625,0.25,High,No,Low,Low,Male,No,Medium,Yes,Yes,Yes,No,Yes
0.125,0.483333,High,No,Low,High,Female,No,High,Yes,Yes,No,No,Yes
0.8625,0.933333,None,Yes,High,Low,Male,No,Medium,No,No,No,No,Yes
0.325,0.316667,Low,No,Low,Low,Male,Yes,Low,Yes,Yes,No,Yes,Yes
0.275,0.933333,Low,Yes,Low,Low,Male,No,High,No,Yes,Yes,Yes,Yes
0.7375,0.25,High,No,High,High,Female,Yes,Medium,No,No,Yes,Yes,Yes
0.0625,1,High,No,High,High,Female,No,Low,No,No,Yes,Yes,Yes
0.1875,0.2,Low,Yes,Medium,High,Male,No,Medium,No,Yes,Yes,Yes,Yes
0.6375,0.5,Low,Yes,Low,Low,Female,Yes,High,Yes,Yes,No,No,Yes
0.675,0.65,High,No,Medium,High,Female,No,Medium,Yes,Yes,Yes,No,Yes
1,0.2,None,Yes,High,High,Male,No,Low,No,No,Yes,Yes,Yes
0.85,0.716667,High,Yes,Medium,Low,Female,No,Medium,No,No,Yes,No,Yes
0.125,0.566667,Medium,No,Medium,High,Male,No,Low,Yes,No,No,Yes,Yes
0.5,0.45,Low,No,High,Low,Male,Yes,Low,No,No,Yes,Yes,Yes
0.05,0.283333,Low,No,Medium,Medium,Male,Yes,High,Yes,Yes,Yes,No,Yes
0.025,0.316667,Low,Yes,Medium,Low,Female,Yes,High,Yes,No,Yes,No,Yes
0.3375,0.966667,High,No,Medium,Low,Female,Yes,High,Yes,Yes,Yes,Yes,Yes
0.6875,0.333333,None,No,Medium,High,Female,Yes,High,No,No,No,Yes,Yes
0.4125,0.6,Low,No,High,Low,Female,Yes,High,Yes,No,No,No,Yes
0.4375,0.9,None,Yes,Low,High,Female,Yes,Low,No,No,No,Yes,Yes
0.075,1,Medium,Yes,Low,Medium,Female,No,Low,No,No,No,Yes,Yes
0.3875,0.183333,None,No,Medium,Low,Female,No,High,Yes,Yes,Yes,Yes,Yes
0.9375,0.9,High,Yes,Medium,Low,Male,No,High,No,Yes,No,No,Yes
0.2875,0.183333,None,Yes,Low,Medium,Female,Yes,Low,No,Yes,Yes,Yes,Yes
0.7375,0.4,Low,No,Medium,Medium,Female,Yes,Medium,Yes,Yes,No,No,Yes
0.3,0.066667,None,Yes,Low,High,Male,No,High,Yes,No,No,No,Yes
0.1875,0.85,High,Yes,Medium,Medium,Male,No,Low,Yes,No,Yes,No,Yes
0.2,0.783333,None,Yes,Medium,Medium,Female,No,High,Yes,Yes,No,No,Yes
0.1875,0.966667,Low,No,High,Medium,Female,No,Low,Yes,No,No,No,Yes
0.35,0.85,None,No,Medium,High,Male,No,Medium,Yes,Yes,Yes,No,Yes
0.85,0.433333,Medium,Yes,Low,High,Male,Yes,Medium,No,Yes,No,Yes,Yes
0.45,0.25,Medium,Yes,Low,Low,Female,No,Medium,No,No,Yes,No,Yes
0.4125,0.35,None,Yes,Medium,High,Female,No,High,Yes,No,No,No,Yes
0.5,0.283333,High,No,High,Medium,Female,Yes,Medium,Yes,Yes,No,No,Yes
0.7375,0.1,Medium,Yes,Low,Low,Male,Yes,Medium,Yes,No,Yes,Yes,Yes
0.95,0.95,High,Yes,High,High,Male,No,Medium,No,Yes,Yes,No,Yes
0.25,0.333333,Medium,No,Low,Low,Female,Yes,High,No,Yes,No,Yes,Yes
0.15,0.9,High,Yes,High,High,Male,Yes,Medium,No,No,No,Yes,Yes
0.525,0.533333,Low,No,Medium,Medium,Male,Yes,Medium,No,Yes,No,No,Yes
0.375,0.066667,Medium,Yes,Medium,High,Female,Yes,Low,Yes,No,Yes,Yes,Yes
0.4625,0.833333,High,No,Low,Low,Male,No,Low,No,No,Yes,No,Yes
0.85,0.816667,Medium,No,Low,Low,Female,Yes,High,Yes,No,No,No,Yes
0.8,0.9,High,Yes,Low,Low,Female,No,Low,No,No,No,Yes,Yes
0.5875,0.85,High,Yes,Low,Low,Female,Yes,Medium,Yes,Yes,Yes,No,Yes
0.8875,0.95,High,Yes,Low,Medium,Male,No,Low,No,No,Yes,Yes,Yes
0.4875,0.8,Medium,No,Low,Medium,Male,Yes,Low,Yes,No,No,Yes,Yes
0.75,0.15,Medium,No,Low,Medium,Male,Yes,High,No,Yes,Yes,No,Yes
0.1125,0.65,Low,No,High,Low,Male,No,Low,Yes,Yes,No,No,Yes
0.1625,0.816667,None,No,Low,Low,Female,No,Low,Yes,No,Yes,No,Yes
0.4875,0.016667,Low,Yes,Low,Medium,Female,No,High,Yes,No,No,Yes,Yes
0.1625,0.45,None,No,Medium,Low,Male,No,Medium,No,Yes,No,Yes,Yes
0.45,0.35,Low,Yes,Medium,High,Male,Yes,High,No,No,Yes,Yes,Yes
0.1125,0.05,Medium,Yes,Medium,High,Male,Yes,Medium,No,No,Yes,No,Yes
0.7,0.766667,High,No,Medium,Medium,Female,No,Medium,No,Yes,Yes,No,Yes
0.5125,0.866667,High,Yes,Low,High,Male,No,Medium,Yes,Yes,Yes,No,Yes
0.0125,0.366667,High,Yes,Medium,Low,Male,No,High,Yes,No,Yes,No,Yes
0.8125,0.283333,None,No,High,Low,Female,Yes,Medium,No,No,No,Yes,Yes
0.5875,0.916667,Medium,Yes,Medium,Low,Male,Yes,Medium,Yes,Yes,No,No,Yes
0.8375,0.083333,High,Yes,Medium,Low,Male,Yes,Low,Yes,No,Yes,Yes,Yes
0.65,0,High,No,Medium,Low,Male,No,Low,Yes,Yes,No,No,Yes
0.0625,0.6,Medium,No,High,High,Male,No,High,No,No,No,Yes,Yes
0.7625,0.616667,Medium,No,High,High,Female,Yes,Medium,No,Yes,No,Yes,Yes
0.3125,0.266667,Medium,No,High,High,Male,No,High,No,No,No,No,Yes
0.5375,0.7,High,Yes,Medium,High,Female,Yes,Low,Yes,No,Yes,No,Yes
0.4625,0.216667,Medium,No,High,Low,Male,No,Medium,No,Yes,Yes,Yes,Yes
0.675,0.65,High,No,Medium,High,Female,No,Medium,Yes,Yes,Yes,No,Yes
0.8125,0.483333,None,No,High,High,Male,No,Medium,Yes,No,Yes,No,Yes
0.7375,0.783333,High,Yes,Low,Medium,Female,No,Low,Yes,No,No,Yes,Yes
0.625,0.9,None,Yes,High,High,Male,Yes,Medium,No,No,No,Yes,Yes
0.625,0.633333,None,Yes,Low,High,Female,No,High,No,Yes,No,No,Yes
0.4375,0.933333,High,No,Medium,Low,Male,Yes,High,Yes,Yes,Yes,No,Yes
0.475,0.85,Low,No,Medium,Low,Female,No,Medium,No,No,Yes,Yes,Yes
0.8625,0.683333,Low,No,High,High,Male,Yes,Low,Yes,Yes,Yes,No,Yes
0.4875,0.733333,None,No,High,Low,Female,No,High,Yes,Yes,Yes,No,Yes
0.775,0.466667,Medium,No,Medium,High,Male,No,High,No,No,Yes,No,Yes
0.125,0.833333,Medium,No,High,Medium,Female,Yes,Medium,No,Yes,Yes,Yes,Yes
0.675,0.5,None,Yes,High,Low,Female,No,Medium,Yes,No,Yes,Yes,Yes
0.775,0.883333,Low,No,Medium,Medium,Male,Yes,Low,Yes,Yes,Yes,Yes,Yes
0.4125,0.6,Low,No,High,Low,Female,Yes,High,Yes,No,No,No,Yes
0.4375,0.316667,Low,Yes,Medium,Low,Female,No,Medium,Yes,No,Yes,Yes,Yes
0.225,0.633333,None,Yes,High,High,Female,No,Low,No,No,Yes,No,Yes
0.3875,0.583333,Medium,No,Medium,Medium,Male,Yes,High,No,Yes,Yes,Yes,Yes
0.95,0.15,Low,Yes,Medium,Medium,Male,No,Medium,No,Yes,No,Yes,Yes
0.6,0.45,High,No,Medium,Medium,Male,Yes,Low,No,Yes,No,No,Yes
0.3875,0.283333,Medium,Yes,Medium,Low,Male,No,High,No,Yes,Yes,Yes,Yes
0.875,0.916667,None,Yes,Medium,Medium,Male,Yes,Medium,Yes,No,No,Yes,Yes
0.5375,0.7,High,Yes,Medium,High,Female,Yes,Low,Yes,No,Yes,No,Yes
0.975,0.066667,Low,No,Medium,Medium,Male,Yes,Low,No,Yes,No,No,Yes
0.5375,1,High,Yes,Low,Medium,Male,Yes,Medium,No,Yes,Yes,Yes,Yes
0.5375,0.266667,Medium,Yes,Medium,Low,Female,No,Medium,Yes,Yes,Yes,Yes,Yes
0.625,0.55,None,Yes,Medium,Medium,Female,Yes,Medium,No,Yes,Yes,No,Yes
0.05,0.033333,High,No,High,Low,Female,No,Medium,No,Yes,Yes,No,Yes
0.325,0.833333,Medium,No,Medium,Medium,Female,Yes,Low,No,Yes,No,Yes,Yes
0.25,0.483333,Low,No,Medium,High,Female,No,High,Yes,No,Yes,No,Yes
0.275,0.883333,Medium,Yes,High,High,Female,Yes,Medium,Yes,Yes,No,Yes,Yes
0.0625,0.6,Medium,No,High,High,Male,No,High,No,No,No,Yes,Yes
0.3,0.95,None,Yes,Low,Medium,Female,Yes,Low,No,Yes,No,Yes,Yes
0.65,0.533333,High,Yes,Low,High,Female,Yes,High,Yes,Yes,Yes,Yes,Yes
0.45,1,Medium,Yes,High,Low,Male,Yes,Low,Yes,No,Yes,No,Yes
0.05,0.283333,Low,No,Medium,Medium,Male,Yes,High,Yes,Yes,Yes,No,Yes
0.7625,0.116667,High,Yes,High,Medium,Male,No,Medium,Yes,No,Yes,Yes,Yes
0.3,0.95,None,Yes,Low,Medium,Female,Yes,Low,No,Yes,No,Yes,Yes
0.8,0.766667,Low,Yes,High,Medium,Female,No,Low,Yes,No,Yes,Yes,Yes
0.5625,0.083333,Low,No,High,Low,Male,Yes,Medium,Yes,No,Yes,Yes,Yes
0.475,0.266667,Medium,No,Low,Medium,Male,No,Medium,Yes,No,Yes,No,Yes
0.225,0.216667,Low,Yes,High,High,Female,Yes,High,Yes,Yes,No,No,Yes
0.125,0.583333,None,No,Low,Low,Male,Yes,Low,Yes,Yes,Yes,Yes,Yes
0.825,0.05,None,Yes,High,Low,Female,Yes,High,Yes,No,Yes,No,Yes
0.6,0.9,High,No,High,Medium,Female,No,Medium,No,Yes,Yes,Yes,Yes
0.65,0.466667,High,No,High,High,Male,Yes,Low,Yes,Yes,No,No,Yes
0.975,0.166667,None,Yes,Medium,Medium,Male,No,Medium,Yes,No,No,No,Yes
0.2875,0.383333,None,No,Medium,High,Female,Yes,High,No,No,Yes,No,Yes
0.65,0.55,High,No,High,High,Male,Yes,Medium,Yes,No,No,Yes,Yes
0.1375,0.633333,None,No,Low,Low,Male,No,High,No,Yes,Yes,Yes,Yes
0.325,0.466667,Low,No,Medium,Low,Male,Yes,Medium,No,No,No,Yes,Yes
0.825,0.05,None,Yes,High,Low,Female,Yes,High,Yes,No,Yes,No,Yes
0.625,0.033333,High,No,Low,High,Male,No,Medium,No,Yes,No,No,Yes
0.0625,0.833333,Medium,Yes,High,Low,Male,No,Low,No,Yes,Yes,No,Yes
0.8375,0.133333,Medium,Yes,High,Medium,Male,Yes,High,Yes,No,No,No,Yes
0.1125,0.483333,High,Yes,Medium,Medium,Female,Yes,High,Yes,No,Yes,Yes,Yes
0.975,0.066667,Low,No,Medium,Medium,Male,Yes,Low,No,Yes,No,No,Yes
0.925,0.7,Medium,Yes,High,Medium,Male,Yes,Low,No,No,No,No,Yes
0.2375,0.116667,High,No,Low,Low,Female,No,Low,No,No,No,No,Yes
0.05,0.716667,Low,No,Medium,Low,Female,No,Medium,No,Yes,No,No,Yes
0.025,0.566667,None,No,Low,Low,Female,No,High,Yes,No,Yes,Yes,Yes
0.2375,0.816667,Medium,No,Medium,Low,Male,No,High,No,No,No,No,Yes
0.3625,0.916667,High,No,Medium,Medium,Female,No,Medium,No,No,Yes,Yes,Yes
0.025,0.6,Medium,No,Low,Low,Female,Yes,Medium,Yes,Yes,No,No,Yes
0.0625,0.2,None,No,Low,Medium,Male,No,Medium,No,Yes,Yes,No,Yes
0.85,0.433333,Medium,Yes,Low,High,Male,Yes,Medium,No,Yes,No,Yes,Yes
0.25,0.6,None,Yes,High,Low,Female,No,Medium,No,Yes,Yes,No,Yes
0.0375,0.816667,None,Yes,Medium,Low,Male,Yes,Medium,Yes,Yes,Yes,No,Yes
0.025,0.583333,Medium,Yes,Low,Low,Male,Yes,Low,Yes,Yes,Yes,No,Yes
0.1875,0.183333,High,No,Medium,High,Male,No,High,Yes,Yes,Yes,Yes,Yes
0.0875,0.616667,High,No,High,Medium,Female,No,Low,Yes,No,No,Yes,Yes
0.3875,0.766667,None,No,High,High,Female,Yes,Medium,Yes,Yes,Yes,Yes,Yes
0.0375,0,Low,No,Low,High,Female,Yes,Low,No,Yes,Yes,No,Yes
0.175,0.933333,High,Yes,Low,Medium,Female,No,Low,No,No,Yes,No,Yes
0.2375,0.6,Medium,No,Low,High,Female,No,Medium,No,Yes,No,No,Yes
0.15,0.766667,High,No,Low,Medium,Male,No,Low,No,No,Yes,Yes,Yes
0.25,0.85,Low,Yes,Low,Low,Male,Yes,Low,No,Yes,No,Yes,Yes
0.9125,0.1,Medium,Yes,Medium,High,Female,No,Low,Yes,No,Yes,No,Yes
0.4375,0.383333,Medium,Yes,Low,Low,Female,Yes,Low,Yes,Yes,No,Yes,Yes
0.3625,0.566667,None,Yes,High,Low,Female,No,High,No,Yes,No,No,Yes
0.2625,0.566667,Medium,Yes,Medium,High,Male,Yes,High,Yes,No,Yes,No,Yes
0.0625,0.133333,High,No,Medium,Low,Male,Yes,Low,No,Yes,Yes,Yes,Yes
0.3375,0.266667,Low,No,Low,Medium,Male,No,Medium,Yes,Yes,No,No,Yes
0.9375,0.883333,Medium,No,Medium,Low,Female,Yes,Low,Yes,Yes,No,No,Yes
0.5375,0.366667,Low,Yes,Medium,Low,Female,No,Low,Yes,Yes,Yes,Yes,Yes
0.1,0.25,Medium,No,Low,Medium,Male,Yes,High,No,Yes,Yes,No,Yes
0.9125,0.366667,Low,Yes,Low,Low,Female,No,Medium,No,No,Yes,No,Yes
0.25,0.85,Low,Yes,Low,Low,Male,Yes,Low,No,Yes,No,Yes,Yes
0.325,0.833333,Medium,No,High,High,Female,Yes,Low,No,No,No,No,Yes
0.35,0.516667,High,Yes,High,High,Male,No,High,Yes,Yes,No,No,Yes
0.3,0.116667,Low,Yes,Low,High,Male,Yes,Medium,Yes,No,Yes,No,Yes
0.575,0.35,None,Yes,High,Low,Male,No,Medium,Yes,No,No,No,Yes
0.6,0.316667,None,Yes,High,High,Male,Yes,Medium,Yes,No,No,Yes,Yes
0.225,0.55,Medium,Yes,Low,High,Female,Yes,Medium,Yes,Yes,No,No,Yes
0.75,0.083333,None,Yes,High,Medium,Male,Yes,High,No,No,Yes,Yes,Yes
0.6625,0.6,Medium,No,High,Medium,Female,No,Low,Yes,Yes,No,No,Yes
0.4875,0.35,None,Yes,High,Low,Female,Yes,Medium,No,Yes,Yes,No,Yes
0.675,0.633333,Low,No,Low,Low,Female,No,Low,Yes,No,No,No,Yes
0.925,0.65,Medium,Yes,Low,High,Female,Yes,Low,No,No,Yes,No,Yes
0.8875,0.15,Medium,No,Low,Medium,Female,No,High,Yes,No,No,No,Yes
0.875,0.133333,Medium,No,Medium,Medium,Female,Yes,Low,No,No,No,Yes,Yes
0.6,0.95,High,No,Medium,Low,Male,Yes,High,No,No,Yes,No,Yes
0.6,0.716667,Low,No,Low,High,Female,No,Low,No,Yes,No,Yes,Yes
0.725,0.633333,Low,No,Medium,High,Male,Yes,High,Yes,No,No,No,Yes
0.8625,0.916667,High,No,High,Medium,Male,No,Low,No,No,No,No,Yes
0.6125,0.533333,Low,Yes,High,Low,Male,Yes,High,No,No,No,No,Yes
0.9875,0,None,Yes,Medium,High,Female,No,Low,No,No,Yes,No,Yes
0.4125,0.35,High,Yes,High,Medium,Female,Yes,Medium,Yes,No,No,No,Yes
0.1625,0.9,None,No,High,Medium,Female,Yes,High,No,No,No,No,Yes
0.1625,0.95,High,Yes,Medium,High,Female,Yes,Low,No,No,Yes,No,Yes
0.3375,0.45,Medium,Yes,High,High,Female,Yes,Low,No,Yes,Yes,No,Yes
0.2,0.566667,High,No,High,Medium,Female,Yes,Low,No,No,No,No,Yes
0.1125,0.65,Low,No,High,Low,Male,No,Low,Yes,Yes,No,No,Yes
0.7875,0.483333,Low,Yes,High,High,Female,No,High,No,Yes,Yes,No,Yes
0.375,0.066667,Medium,Yes,Medium,High,Female,Yes,Low,Yes,No,Yes,Yes,Yes
0.65,0.55,High,No,High,High,Male,Yes,Medium,Yes,No,No,Yes,Yes
0.2375,0.166667,None,No,Low,Low,Female,Yes,Medium,No,No,No,No,Yes
0.9125,0.1,Medium,Yes,Medium,High,Female,No,Low,Yes,No,Yes,No,Yes
0.65,0.633333,High,No,Medium,High,Male,No,Medium,Yes,No,No,No,Yes
0.2375,0.983333,High,No,Medium,Medium,Male,Yes,Low,Yes,Yes,Yes,No,Yes
0.3375,0.45,Medium,Yes,High,High,Female,Yes,Low,No,Yes,Yes,No,Yes
0.7625,0.45,None,Yes,High,High,Male,No,High,No,No,Yes,No,Yes
0.3625,0.916667,High,No,Medium,Medium,Female,No,Medium,No,No,Yes,Yes,Yes
0.75,0.033333,Low,No,Medium,Medium,Female,No,Medium,No,No,Yes,No,Yes
0.9875,0.783333,None,Yes,High,Low,Female,No,High,No,Yes,No,No,Yes
0.75,0.416667,None,No,Low,Low,Female,Yes,Low,No,No,Yes,No,Yes
0.4125,0.216667,High,No,High,Low,Female,No,Low,No,No,Yes,Yes,Yes
0.7,0.7,Low,No,Medium,High,Male,No,Low,Yes,Yes,Yes,No,Yes
0.825,0.916667,Low,Yes,Low,Medium,Female,Yes,Low,Yes,Yes,No,No,Yes
0.5,0.266667,High,No,Low,Low,Female,Yes,Medium,Yes,Yes,Yes,Yes,Yes
0.6125,0.466667,Medium,No,Medium,Medium,Female,Yes,High,No,Yes,Yes,Yes,Yes
0.175,0.95,Medium,No,High,Medium,Female,No,Low,Yes,Yes,No,No,Yes
0.1625,0.35,Low,Yes,Low,High,Male,Yes,Medium,No,Yes,Yes,No,Yes
0.5375,0.166667,None,No,Medium,Low,Male,Yes,High,Yes,Yes,Yes,Yes,Yes
0.9125,0.6,High,Yes,Low,Medium,Male,No,High,No,No,No,No,Yes
0.85,0.866667,Low,No,High,Medium,Male,Yes,High,No,No,No,Yes,Yes
0.5,0.4,None,No,High,Low,Female,Yes,Medium,No,Yes,Yes,Yes,Yes
0.1375,0.533333,Low,Yes,Medium,Medium,Male,No,Low,Yes,Yes,No,No,Yes
0.6375,0.366667,Medium,Yes,Low,Low,Male,No,Low,Yes,Yes,Yes,No,Yes
0.7375,0.883333,Medium,No,High,Low,Female,No,Medium,Yes,Yes,No,Yes,Yes
0.1625,0.05,High,Yes,Low,Low,Female,Yes,High,No,Yes,No,Yes,Yes
0.5625,0.066667,High,Yes,High,High,Male,Yes,High,Yes,Yes,Yes,No,Yes
0.15,0.066667,High,Yes,Low,Low,Female,Yes,Medium,No,Yes,No,No,Yes
0.3125,0.15,Low,No,Low,High,Male,No,Medium,Yes,Yes,Yes,No,Yes
0.975,0.583333,High,Yes,Medium,Low,Male,No,Medium,Yes,Yes,Yes,No,Yes
0.9875,0.3,High,Yes,Low,High,Male,Yes,Low,Yes,No,No,No,Yes
0.925,0.116667,Low,Yes,Low,Low,Male,No,High,No,No,Yes,Yes,Yes
0.7625,0.366667,Medium,No,Low,Medium,Female,No,Low,Yes,No,No,Yes,Yes
0.1375,0.266667,Low,No,High,Medium,Male,No,Low,No,Yes,Yes,Yes,Yes
0.0375,0.583333,None,Yes,Low,Low,Female,Yes,High,No,Yes,No,Yes,Yes
0.5,0.066667,Low,No,High,Medium,Female,Yes,Medium,Yes,Yes,Yes,No,Yes
0.675,0.2,High,No,Medium,Low,Male,No,Low,Yes,No,No,Yes,Yes
0.5,0.316667,High,Yes,Low,Low,Female,Yes,High,No,No,Yes,Yes,Yes
0.75,0.016667,High,Yes,Medium,High,Female,Yes,Low,No,Yes,No,No,Yes
0.9,0.933333,High,No,Medium,Medium,Female,Yes,High,No,No,No,No,Yes
0.575,0.016667,Medium,Yes,Low,High,Male,Yes,High,Yes,No,No,Yes,Yes
0.5625,0.366667,None,No,Medium,Low,Female,No,Medium,Yes,Yes,No,Yes,Yes
0.3625,0.883333,None,No,Low,Low,Male,No,High,No,No,Yes,No,Yes
0.275,0.216667,Low,No,Low,Medium,Female,No,Medium,No,Yes,No,No,Yes
0.375,0.083333,High,No,Medium,High,Male,No,Low,No,No,No,Yes,Yes
0.1375,0.533333,Low,Yes,Medium,Medium,Male,No,Low,Yes,Yes,No,No,Yes
0.8625,0.333333,None,No,High,High,Male,No,High,Yes,Yes,Yes,Yes,Yes
0.325,0.416667,None,Yes,Medium,Medium,Female,Yes,Low,Yes,Yes,Yes,Yes,Yes
0.2625,0.583333,None,Yes,Low,Medium,Female,No,High,Yes,No,No,No,Yes
0.725,0.016667,Medium,Yes,Low,High,Female,Yes,High,No,Yes,Yes,No,Yes
0.825,0.166667,High,No,High,Medium,Male,No,Low,Yes,No,No,Yes,Yes
0.975,0.433333,Medium,Yes,Low,Medium,Female,No,Low,No,Yes,Yes,No,Yes
0.7,0.25,None,Yes,Medium,High,Female,Yes,Low,No,No,No,No,Yes
0.1125,0.25,None,Yes,Low,Medium,Male,Yes,Medium,No,No,No,Yes,Yes
0.525,0.733333,Medium,No,Medium,High,Female,No,Low,No,No,Yes,Yes,Yes
0.0625,0,Medium,Yes,High,High,Female,Yes,Low,Yes,Yes,No,Yes,Yes
0.8875,0.2,Medium,Yes,Low,High,Female,No,Medium,Yes,No,No,Yes,Yes
0.7,0.933333,High,Yes,Low,Low,Female,No,Low,Yes,No,No,Yes,Yes
0.525,0.066667,Low,Yes,Low,High,Female,No,High,No,Yes,Yes,Yes,Yes
0.85,0.55,High,No,Medium,High,Male,Yes,High,No,Yes,Yes,No,Yes
0,0.85,None,Yes,Medium,Medium,Male,Yes,Low,Yes,Yes,Yes,Yes,Yes
0.775,0.266667,Low,Yes,Medium,Medium,Male,No,High,Yes,No,Yes,No,Yes
0.0125,0.383333,Medium,No,Low,Medium,Female,Yes,Low,No,No,Yes,No,Yes
0.5375,0.583333,None,Yes,Low,Medium,Male,No,High,Yes,No,No,Yes,Yes
0.0125,0.333333,High,Yes,Medium,High,Male,Yes,High,Yes,No,Yes,Yes,Yes
0.05,0.05,Medium,Yes,Medium,Medium,Male,No,Low,No,Yes,No,No,Yes
0.3625,0.75,High,Yes,Medium,High,Female,No,Low,Yes,Yes,Yes,No,Yes
0.375,0.55,Low,Yes,Medium,High,Female,No,Medium,Yes,Yes,Yes,No,Yes
1,0.4,Low,Yes,Low,High,Female,No,High,No,Yes,Yes,No,Yes
0.2,0.333333,High,No,Low,High,Female,Yes,High,No,No,No,Yes,Yes
0.7,0.15,High,Yes,Low,Low,Female,Yes,High,No,No,Yes,No,Yes
0.5875,0.633333,High,No,Low,High,Female,No,High,Yes,No,Yes,No,Yes
0.1625,0.016667,None,No,High,Low,Female,No,Low,Yes,Yes,No,No,Yes
0.2875,0.383333,Low,Yes,Low,Low,Female,No,Medium,Yes,Yes,Yes,No,Yes
0.6125,0.983333,None,No,High,High,Female,Yes,Low,Yes,No,No,No,Yes
0.7375,0.2,Medium,Yes,Medium,High,Male,Yes,High,No,Yes,No,No,Yes
0.6,0.533333,Medium,No,High,Low,Female,No,High,Yes,Yes,No,Yes,Yes
0.7625,0.416667,High,No,Low,Medium,Female,No,Medium,Yes,No,Yes,Yes,Yes
0.95,0.716667,Low,Yes,High,Medium,Female,No,Medium,No,Yes,Yes,Yes,Yes
0.25,0.983333,Low,No,High,Low,Female,No,Low,Yes,Yes,Yes,Yes,Yes
0.625,0.55,None,Yes,Medium,Medium,Female,Yes,Medium,No,Yes,Yes,No,Yes
0.85,0.366667,None,Yes,High,Low,Male,No,Low,Yes,No,Yes,Yes,Yes
0.9375,0.733333,Medium,Yes,Medium,Medium,Male,Yes,Medium,Yes,Yes,No,No,Yes
0.925,0.95,High,No,Low,High,Male,No,High,Yes,No,Yes,Yes,Yes
0.0375,0.9,High,No,Medium,Low,Female,Yes,Low,No,No,No,Yes,Yes
0.45,0.283333,High,No,High,Low,Female,Yes,High,Yes,Yes,No,Yes,Yes
0.3,0.75,Medium,No,High,Low,Male,No,High,Yes,Yes,Yes,Yes,Yes
0.375,0.383333,Low,No,Medium,Medium,Female,No,Medium,No,No,No,No,Yes
0.9,0.75,Medium,No,Medium,Medium,Male,No,Low,No,No,Yes,No,Yes
0.75,0.383333,Low,Yes,Low,Medium,Female,No,High,No,No,No,No,Yes
0.8125,0.05,High,Yes,High,High,Female,No,High,No,Yes,Yes,Yes,Yes
0.675,0.866667,High,No,Medium,Medium,Female,No,High,No,Yes,Yes,Yes,Yes
0.7125,0.316667,High,Yes,Medium,Medium,Female,Yes,Medium,Yes,No,Yes,Yes,Yes
0.65,0.216667,Medium,No,Low,Low,Male,No,Medium,No,Yes,No,No,Yes
0.2375,0.166667,None,No,Low,Low,Female,Yes,Medium,No,No,No,No,Yes
0.5375,0.766667,None,No,Medium,High,Female,Yes,Medium,Yes,No,No,Yes,Yes
0.35,0.783333,Medium,No,Low,Medium,Female,No,Medium,Yes,No,No,No,Yes
0.4125,0.433333,High,No,Medium,Low,Male,Yes,Low,No,Yes,No,Yes,Yes
0.475,0.05,High,No,High,High,Male,Yes,Medium,No,Yes,Yes,Yes,Yes
0.2875,0.3,Low,No,High,High,Female,Yes,High,No,No,Yes,No,Yes
0.575,0.6,High,No,Low,Low,Male,No,Medium,No,Yes,Yes,No,Yes
0.2375,0.216667,High,Yes,Medium,Low,Female,Yes,Medium,No,No,No,Yes,Yes
0.9125,0.933333,Low,Yes,High,High,Female,No,High,No,Yes,Yes,No,Yes
0.125,0.166667,None,No,High,High,Female,No,Medium,Yes,No,Yes,Yes,Yes
0.8625,0.966667,Low,No,Low,Medium,Male,Yes,High,No,Yes,No,Yes,Yes
0.1375,0.1,Low,Yes,Low,Medium,Female,Yes,High,No,Yes,No,Yes,Yes
0.525,0.766667,None,No,Medium,High,Male,Yes,Low,Yes,Yes,No,Yes,Yes
0.9125,0.55,None,Yes,Low,Medium,Male,No,Medium,Yes,No,Yes,Yes,Yes
0.6625,0.516667,None,No,Medium,Low,Female,No,High,Yes,Yes,Yes,Yes,Yes
0.825,0.333333,None,Yes,Low,Medium,Female,No,High,Yes,Yes,No,No,Yes
0.325,0.95,Low,No,High,Medium,Female,No,High,Yes,Yes,No,No,Yes
0.3,0.833333,None,Yes,High,Medium,Male,Yes,Medium,No,No,Yes,Yes,Yes
0.8125,0.316667,Medium,No,Medium,Medium,Female,Yes,High,No,Yes,Yes,Yes,Yes
0.8375,0.483333,Medium,No,High,High,Male,No,Low,Yes,Yes,Yes,Yes,Yes
0.125,0.233333,None,Yes,High,Low,Male,No,High,Yes,No,Yes,No,Yes
0.501778,0.066667,High,No,Medium,Medium,Female,Yes,High,Yes,No,No,Yes,Yes
0.425,0.533333,Medium,Yes,Low,Medium,Female,Yes,Medium,Yes,No,No,No,Yes
0.775,0.65,None,No,Low,Medium,Male,No,High,Yes,Yes,No,No,Yes
0.5375,0.366667,Low,Yes,Medium,Low,Female,No,Low,Yes,Yes,Yes,Yes,Yes
0.175,0.733333,None,Yes,Medium,Medium,Male,No,High,Yes,No,Yes,Yes,Yes
0.075,0.833333,None,No,Low,High,Male,Yes,High,Yes,Yes,No,Yes,Yes
0.2,0.016667,Low,Yes,Medium,Low,Female,No,High,Yes,No,Yes,Yes,Yes
0.225,0.25,Medium,No,Medium,High,Female,No,Low,Yes,Yes,No,No,Yes
0.0875,0.9,None,No,High,Medium,Female,No,Medium,Yes,Yes,No,No,Yes
0.85,0.116667,Low,Yes,High,Medium,Male,No,Low,No,Yes,No,No,Yes
0.625,0.583333,Medium,Yes,High,Medium,Male,Yes,Medium,No,No,Yes,Yes,Yes
0.9875,0.766667,Low,No,Low,High,Female,Yes,Medium,Yes,No,Yes,Yes,Yes
0.125,0.95,Medium,Yes,Medium,Low,Female,No,Medium,No,No,No,Yes,Yes
0.5125,0.483333,Medium,No,Medium,Low,Male,No,Medium,No,No,No,Yes,Yes
0.3875,0.883333,None,No,Medium,Medium,Male,No,High,No,No,Yes,No,Yes
0.2625,0.95,None,Yes,Medium,Low,Male,No,Low,No,Yes,No,Yes,Yes
0.8625,0.85,High,Yes,High,Medium,Male,Yes,High,Yes,No,No,No,Yes
0.175,0.266667,None,No,Low,High,Female,No,Low,Yes,No,No,No,Yes
0.55,0.7,None,Yes,High,Low,Female,Yes,High,No,No,No,No,Yes
0.925,0.05,Low,Yes,High,High,Male,Yes,Low,No,Yes,Yes,Yes,Yes
0.8625,0.1,Low,No,Low,High,Male,No,High,No,No,No,No,Yes
0.775,0.066667,High,Yes,Low,High,Male,No,Medium,Yes,Yes,Yes,No,Yes
0.0625,0.616667,Medium,No,High,High,Male,No,Medium,Yes,No,No,Yes,Yes
0.4375,0.7,High,Yes,Low,Medium,Female,No,Medium,No,No,No,Yes,Yes
0.7875,0.083333,Low,Yes,Low,High,Male,No,High,No,No,No,Yes,Yes
0.6625,0.6,Medium,No,High,Medium,Female,No,Low,Yes,Yes,No,No,Yes
0.1375,0.116667,None,Yes,Low,Low,Male,No,Medium,Yes,No,Yes,No,Yes
0.2,0.1,None,Yes,Medium,Medium,Male,Yes,Low,Yes,Yes,No,Yes,Yes
0.25,0.6,High,Yes,Low,Medium,Male,No,Medium,Yes,Yes,Yes,No,Yes
0.5375,0.3,High,No,Low,Medium,Female,Yes,Low,No,No,Yes,Yes,Yes
0.925,0.483333,None,No,Medium,Low,Female,No,Medium,No,Yes,Yes,No,Yes
0.1625,0.45,None,No,Medium,Low,Male,No,Medium,No,Yes,No,Yes,Yes
0.3625,0.633333,None,Yes,Medium,Low,Female,Yes,Medium,Yes,No,Yes,Yes,Yes
0.525,0.65,Medium,No,Medium,Low,Male,Yes,Low,No,No,Yes,No,Yes
0.325,0.766667,High,Yes,High,Medium,Female,No,Low,Yes,Yes,No,Yes,Yes
0.8625,0.283333,None,Yes,Medium,High,Male,Yes,Low,Yes,No,Yes,Yes,Yes
0.3,0.683333,None,No,High,Medium,Male,Yes,High,No,Yes,Yes,Yes,Yes
0.8125,0.55,Low,No,Low,Low,Female,Yes,Medium,Yes,No,No,No,Yes
0.825,0.333333,None,Yes,Low,Medium,Female,No,High,Yes,Yes,No,No,Yes
0.15,0.333333,High,No,Low,High,Female,No,High,Yes,Yes,Yes,Yes,Yes
0.0625,0.033333,High,Yes,Low,Medium,Male,Yes,Low,No,Yes,Yes,No,Yes
0.55,0.566667,High,Yes,Medium,Medium,Female,No,Low,No,No,No,Yes,Yes
0.45,0.1,Low,Yes,High,Low,Male,Yes,High,No,Yes,No,Yes,Yes
0.5,0.916667,High,Yes,High,High,Female,No,Low,Yes,Yes,Yes,Yes,Yes
0.375,0.1,High,No,Medium,High,Female,No,High,No,Yes,Yes,No,Yes
0.3875,0.05,Medium,Yes,Low,Medium,Female,Yes,Medium,Yes,Yes,Yes,Yes,Yes
0.45,0.333333,Medium,Yes,High,High,Male,Yes,Medium,No,No,Yes,Yes,Yes
0.825,0.495962,High,Yes,High,Low,Female,No,Medium,Yes,Yes,No,No,Yes
0.4875,0.05,Medium,Yes,Low,High,Male,No,High,No,Yes,Yes,Yes,Yes
0.75,0.216667,Low,No,Medium,High,Male,Yes,Low,Yes,No,Yes,Yes,Yes
0.1875,0.183333,High,No,Medium,High,Male,No,High,Yes,Yes,Yes,Yes,Yes
0.7625,0.416667,High,No,Low,Low,Male,No,Low,Yes,No,No,No,Yes
0.3,0.883333,None,Yes,Low,Low,Male,Yes,Low,Yes,Yes,No,No,Yes
0.2,0.333333,High,Yes,Medium,High,Male,Yes,Medium,Yes,No,No,No,Yes
0.725,0.983333,Low,No,Medium,Low,Male,No,High,No,Yes,Yes,Yes,Yes
0.775,0.133333,High,Yes,Low,Low,Male,No,Medium,No,Yes,No,Yes,Yes
0.1375,0.483333,None,No,High,Low,Male,Yes,Low,Yes,Yes,No,No,Yes
0.1125,0.183333,Low,Yes,High,Low,Female,No,High,Yes,No,Yes,No,Yes
0.525,0.266667,None,Yes,Medium,High,Female,No,Low,Yes,No,No,No,Yes
0.0625,0.033333,High,Yes,Low,Medium,Male,Yes,Low,No,Yes,Yes,No,Yes
0.6125,0.716667,Medium,Yes,Low,High,Female,Yes,Low,No,Yes,No,Yes,Yes
0.9375,0.583333,High,Yes,Low,High,Female,No,Low,No,No,No,No,Yes
0.775,0.133333,High,No,Low,High,Female,Yes,Low,No,No,Yes,Yes,Yes
0.925,0.516667,None,Yes,Low,Medium,Female,No,High,No,Yes,No,Yes,Yes
0.9125,0.6,High,Yes,Low,Medium,Male,No,High,No,No,No,No,Yes
0.9125,0.45,Low,No,Low,Low,Male,No,High,Yes,No,Yes,Yes,Yes
0.275,0.233333,Low,No,Low,Low,Male,No,Medium,No,No,Yes,Yes,Yes
0.2125,0.733333,Low,Yes,High,Low,Female,No,Low,Yes,Yes,No,Yes,Yes
0.1125,0.116667,None,Yes,Medium,High,Male,Yes,High,No,Yes,Yes,Yes,Yes
0.2,0.05,Medium,Yes,Medium,High,Female,Yes,High,No,Yes,No,No,Yes
0.1125,0.183333,Low,Yes,High,Low,Female,No,High,Yes,No,Yes,No,Yes
0.3,0.216667,None,Yes,High,High,Female,Yes,Medium,Yes,No,Yes,No,Yes
0.6125,0.75,None,No,High,High,Female,Yes,High,No,No,No,No,Yes
0.8125,0.083333,None,No,High,Low,Male,Yes,Medium,No,No,No,Yes,Yes
0.775,0.9,Low,No,High,Low,Male,No,Medium,No,No,No,Yes,Yes
0.25,0.116667,Low,Yes,Low,Medium,Female,Yes,High,Yes,No,No,Yes,Yes
0.175,0.15,High,No,Medium,Medium,Female,Yes,Medium,No,No,No,No,Yes
0.8625,0.55,Medium,Yes,Medium,Low,Male,No,Low,No,No,Yes,No,Yes
1,0.45,Low,Yes,Low,Low,Female,Yes,Low,Yes,Yes,No,Yes,Yes
0.775,0.9,Low,No,High,Low,Male,No,Medium,No,No,No,Yes,Yes
0.8875,0.65,High,No,High,Medium,Male,Yes,Low,No,Yes,No,No,Yes
0.35,0.783333,None,Yes,High,Medium,Male,No,High,No,No,No,No,Yes
0.25,0.866667,Medium,Yes,Medium,Medium,Female,No,Medium,No,Yes,Yes,Yes,Yes
0.5375,0.016667,Medium,No,High,Medium,Male,No,Medium,No,No,No,No,Yes
0.6,0.883333,Low,Yes,High,Medium,Male,No,High,Yes,Yes,Yes,No,Yes
0.725,0.016667,Medium,Yes,Low,High,Female,Yes,High,No,Yes,Yes,No,Yes
0.5,0.4,Medium,No,High,High,Male,Yes,Medium,Yes,No,No,Yes,Yes
0.675,0.183333,Medium,Yes,Low,High,Male,Yes,Medium,Yes,No,Yes,Yes,Yes
0.25,0.6,High,Yes,Low,Medium,Male,No,Medium,Yes,Yes,Yes,No,Yes
0.1875,0.183333,High,No,Medium,High,Male,No,High,Yes,Yes,Yes,Yes,Yes
0.2375,0,Medium,Yes,Medium,High,Male,No,Low,No,No,No,No,Yes
0.0625,0.816667,High,No,Medium,Medium,Female,No,Medium,Yes,No,Yes,Yes,Yes
0.35,0.883333,High,Yes,Low,Low,Male,Yes,High,Yes,No,No,Yes,Yes
0.475,0.55,High,Yes,High,High,Male,No,High,No,No,Yes,Yes,Yes
0.5,0.266667,High,No,Low,Low,Female,Yes,Medium,Yes,Yes,Yes,Yes,Yes
0.4625,0.416667,None,Yes,Medium,Medium,Female,No,Medium,No,Yes,Yes,No,Yes
0.625,0.9,None,Yes,High,High,Male,Yes,Medium,No,No,No,Yes,Yes
0.4625,0.783333,Low,No,High,High,Female,No,Medium,Yes,Yes,No,Yes,Yes
0.825,0.583333,Medium,Yes,Medium,High,Male,No,High,Yes,No,Yes,Yes,Yes
0.1125,0.016667,High,Yes,High,Medium,Male,No,Low,Yes,No,Yes,No,Yes
0.775,0.066667,High,Yes,Low,High,Male,No,Medium,Yes,Yes,Yes,No,Yes
0.8875,0.983333,High,Yes,High,Low,Female,No,High,No,Yes,Yes,No,Yes
0.925,0.2,None,Yes,Low,High,Female,No,High,Yes,No,Yes,No,Yes
0.1875,0.516667,High,No,Medium,Low,Male,Yes,Medium,Yes,Yes,Yes,No,Yes
0.975,0.5,None,No,High,High,Male,Yes,Low,Yes,Yes,No,Yes,Yes
0.075,0.933333,Low,Yes,Low,Low,Male,No,High,No,No,Yes,Yes,Yes
0.8,0.683333,Low,Yes,Low,Low,Male,No,High,Yes,Yes,No,No,Yes
0.3875,0.05,Medium,Yes,Low,Medium,Female,Yes,Medium,Yes,Yes,Yes,Yes,Yes
0.225,0.733333,None,Yes,Low,Medium,Female,Yes,High,Yes,Yes,Yes,No,Yes
0.3625,0.766667,High,No,Low,Medium,Female,No,High,No,No,Yes,Yes,Yes
0.1625,0.166667,None,Yes,High,High,Female,Yes,Low,Yes,No,Yes,Yes,Yes
0.3125,0.15,Low,No,Low,High,Male,No,Medium,Yes,Yes,Yes,No,Yes
0.3625,0.75,Medium,Yes,Low,Low,Female,Yes,Low,No,No,Yes,Yes,Yes
0.0625,0.466667,Low,No,Low,High,Female,No,Medium,Yes,Yes,Yes,Yes,Yes
0.0375,0.533333,None,Yes,High,Medium,Male,No,High,No,No,Yes,Yes,Yes
0.9,0.116667,Medium,No,High,High,Male,No,Low,No,Yes,No,No,Yes
0.7,0.1,None,Yes,Medium,Low,Female,No,High,Yes,Yes,No,Yes,Yes
0.65,0.216667,Medium,No,Medium,Low,Male,Yes,High,Yes,Yes,No,No,Yes
0.375,0,None,No,Medium,Low,Female,Yes,High,No,No,Yes,No,Yes
0.1125,0.35,None,Yes,High,Low,Male,No,Low,No,Yes,No,Yes,Yes
0.2875,0.683333,None,No,High,High,Male,No,Low,Yes,No,No,Yes,Yes
0.2125,0.733333,Medium,Yes,Medium,Medium,Female,No,Low,Yes,Yes,Yes,Yes,Yes
0.825,0.25,High,No,Low,Medium,Female,Yes,Low,Yes,No,Yes,No,Yes
0.3,0.733333,Medium,Yes,High,Low,Female,Yes,Low,No,Yes,No,Yes,Yes
0.2125,0.733333,Low,Yes,High,Low,Female,No,Low,Yes,Yes,No,Yes,Yes
0.0125,0.25,Medium,No,High,Low,Female,Yes,High,No,Yes,No,Yes,Yes
0.525,0.066667,High,No,Low,High,Male,No,Medium,Yes,No,No,Yes,Yes
0.35,0.15,None,Yes,Medium,Medium,Female,No,Medium,Yes,No,Yes,No,Yes
0.1,0.033333,Low,No,Medium,Low,Male,No,Medium,No,Yes,No,No,Yes
0.925,0.366667,Medium,Yes,Medium,Medium,Male,No,Medium,No,No,Yes,No,Yes
0.9375,0.616667,Medium,Yes,High,Low,Male,Yes,High,Yes,No,Yes,Yes,Yes
0.0375,0.816667,None,No,Medium,Medium,Male,No,High,No,No,No,No,Yes
0.8125,0.416667,None,Yes,Low,Low,Female,No,Low,No,Yes,Yes,No,Yes
0.0625,0.75,Medium,No,Low,Medium,Female,No,Low,No,Yes,No,No,Yes
0.25,0.4,None,Yes,Low,Low,Female,No,Low,No,No,No,Yes,Yes
0.8875,0.533333,Medium,Yes,Medium,Low,Male,No,Medium,No,No,No,No,Yes
0.7875,0.3,None,Yes,Medium,Low,Female,Yes,High,Yes,Yes,Yes,No,Yes
0.45,0.316667,Low,Yes,Low,Low,Male,No,Medium,Yes,No,No,No,Yes
0.3125,0.516667,High,Yes,Low,Medium,Male,No,Low,No,No,No,No,Yes
0.0625,0.2,Medium,No,Medium,Medium,Female,Yes,Medium,Yes,Yes,Yes,Yes,Yes
0.25,1,Medium,No,High,High,Female,No,Medium,No,Yes,Yes,No,Yes
0.5375,0.45,High,Yes,Medium,Low,Male,Yes,Medium,Yes,No,Yes,Yes,Yes
0.675,0.5,None,Yes,High,Low,Female,No,Medium,Yes,No,Yes,Yes,Yes
0.875,0.133333,Medium,Yes,Medium,Low,Male,No,Medium,No,Yes,No,Yes,Yes
0.675,0.1,None,Yes,Low,High,Female,Yes,High,No,Yes,No,Yes,Yes
0.975,0.283333,High,Yes,High,High,Male,No,Medium,No,Yes,No,Yes,Yes
0.05,0.716667,Low,No,Medium,Low,Female,No,Medium,No,Yes,No,No,Yes
0.325,0.533333,Low,No,Low,Medium,Female,No,Medium,Yes,No,Yes,Yes,Yes
0.5625,0.183333,Low,Yes,Medium,High,Male,Yes,Low,No,No,Yes,Yes,Yes
0.1625,0.45,None,No,Medium,Low,Male,No,Medium,No,Yes,No,Yes,Yes
0.0625,0.616667,High,Yes,High,Low,Female,Yes,Medium,Yes,No,Yes,Yes,Yes
0.4375,0.833333,None,No,Medium,Low,Male,Yes,Medium,No,No,Yes,No,Yes
0.975,0.85,High,Yes,Low,Medium,Female,No,Medium,No,No,Yes,No,Yes
0.85,0.666667,Low,No,Medium,Medium,Male,Yes,Low,Yes,Yes,Yes,Yes,Yes
0.25,0.383333,None,No,Medium,Medium,Male,No,Low,No,Yes,Yes,Yes,Yes
0.1875,0.966667,Low,No,High,Medium,Female,No,Low,Yes,No,No,No,Yes
0.475,0.633333,None,Yes,Low,High,Male,Yes,High,No,Yes,Yes,Yes,Yes
0.9875,0.283333,Medium,Yes,Low,Medium,Male,Yes,Low,No,Yes,No,Yes,Yes
0.625,0.033333,High,No,Low,High,Male,No,Medium,No,Yes,No,No,Yes
0.1,0.4,High,No,Low,Medium,Female,Yes,High,Yes,No,Yes,Yes,Yes
0.7375,0.783333,High,Yes,Low,Medium,Female,No,Low,Yes,No,No,Yes,Yes
0.8375,0.583333,None,No,Medium,High,Female,Yes,Medium,Yes,Yes,No,Yes,Yes
0.725,0.95,Medium,Yes,Medium,Low,Male,Yes,High,No,No,No,Yes,Yes
0.7,0.8,High,No,Medium,Low,Male,Yes,Medium,Yes,No,Yes,No,Yes
0.2,0.516667,High,Yes,High,Medium,Male,Yes,Medium,Yes,Yes,No,Yes,Yes
0.275,0.133333,None,Yes,High,High,Female,No,High,Yes,Yes,No,Yes,Yes
0.5,0.75,Medium,Yes,High,Medium,Male,Yes,High,Yes,Yes,No,Yes,Yes
0.2875,1,Medium,Yes,High,Low,Male,No,High,Yes,No,No,No,Yes
0.9125,0.066667,Medium,No,High,Low,Female,No,Medium,Yes,No,Yes,Yes,Yes
0.075,0.483333,High,No,Low,Low,Female,Yes,High,No,Yes,No,No,Yes
0.6125,0.466667,High,Yes,Medium,Low,Male,No,High,Yes,Yes,No,No,Yes
0.0625,0,Low,Yes,Low,Low,Male,No,Medium,Yes,No,No,No,Yes
0.8625,0.1,Low,Yes,High,High,Female,No,Medium,Yes,Yes,No,No,Yes
0.6125,1,Low,Yes,Medium,Medium,Female,No,High,Yes,No,Yes,No,Yes
0.25,0.516667,Low,Yes,High,Low,Male,Yes,Medium,Yes,Yes,Yes,No,Yes
0.6625,0.433333,High,Yes,High,High,Female,Yes,Medium,Yes,Yes,Yes,Yes,Yes
0.325,0.833333,Medium,No,High,High,Female,Yes,Low,No,No,No,No,Yes
0.2125,0.133333,None,No,Low,Medium,Male,Yes,Low,Yes,Yes,No,No,Yes
0.5375,1,High,Yes,Low,Medium,Male,Yes,Medium,No,Yes,Yes,Yes,Yes
0.1375,0.45,High,No,High,Low,Female,No,Low,Yes,No,Yes,No,Yes
0.1375,0.483333,None,Yes,Medium,Low,Female,Yes,Medium,No,No,Yes,Yes,Yes
0.75,0.083333,High,Yes,High,High,Female,Yes,High,Yes,No,Yes,No,Yes
0.7375,0.533333,Low,Yes,High,Medium,Male,No,Low,Yes,No,Yes,No,Yes
0.5375,1,High,Yes,Low,Medium,Male,Yes,Medium,No,Yes,Yes,Yes,Yes
0.9,0.933333,High,No,Medium,Medium,Female,Yes,High,No,No,No,No,Yes
0.8,0.683333,Low,Yes,Low,Low,Male,No,High,Yes,Yes,No,No,Yes
0.5,0.866667,High,No,Low,High,Female,No,Medium,No,Yes,Yes,Yes,Yes
0.4375,0.716667,High,No,Medium,High,Male,Yes,Medium,No,Yes,Yes,No,Yes
0.4875,0.483333,High,Yes,Medium,High,Female,Yes,Medium,Yes,No,Yes,Yes,Yes
0.7375,0.116667,High,No,High,High,Male,Yes,High,Yes,Yes,Yes,Yes,Yes
0.075,0.933333,Low,Yes,Low,Low,Male,No,High,No,No,Yes,Yes,Yes
0.7875,0.083333,High,No,Medium,High,Female,Yes,Low,No,Yes,No,Yes,Yes
0.625,0.55,High,No,High,Medium,Male,Yes,Low,No,No,Yes,Yes,Yes
0.7625,0.833333,Medium,Yes,High,Medium,Male,Yes,High,Yes,Yes,Yes,No,Yes
0.5,0.316667,High,Yes,Low,Low,Female,Yes,High,No,No,Yes,Yes,Yes
0.4375,0.816667,Medium,Yes,High,Low,Male,Yes,High,No,No,No,Yes,Yes
0.4125,0.6,Medium,No,Low,Medium,Male,No,Low,Yes,No,No,Yes,Yes
0.8,0.416667,High,No,Medium,Medium,Male,Yes,High,No,No,No,Yes,Yes
0.85,0.666667,Low,No,Medium,Medium,Male,Yes,Low,Yes,Yes,Yes,Yes,Yes
0.8625,0.1,Low,Yes,High,High,Female,No,Medium,Yes,Yes,No,No,Yes
0.675,0.466667,Low,No,Low,Medium,Male,Yes,Low,No,No,No,No,Yes
0.4125,0.783333,High,No,Medium,Low,Female,Yes,High,Yes,No,No,Yes,Yes
0.4375,1,Medium,No,Medium,Medium,Male,Yes,Medium,Yes,No,No,No,Yes
0.35,0.916667,Low,No,Medium,High,Female,Yes,Low,No,No,Yes,Yes,Yes
0.0125,0.8,Medium,Yes,High,Medium,Male,Yes,High,No,No,No,No,Yes
0.4125,0.6,Medium,No,Low,Medium,Male,No,Low,Yes,No,No,Yes,Yes
0.1125,0.033333,High,Yes,Low,Medium,Male,Yes,High,Yes,Yes,Yes,Yes,Yes
0.125,0.5,Low,Yes,High,Low,Male,Yes,Low,No,No,Yes,Yes,Yes
0.4125,0.216667,High,Yes,High,Low,Female,No,Medium,Yes,No,No,Yes,Yes
0.975,0.316667,None,No,Medium,Medium,Male,No,Medium,No,Yes,Yes,No,Yes
0.05,0.233333,Low,Yes,Low,High,Male,Yes,Low,No,Yes,Yes,Yes,Yes
0.8375,0.1,Low,No,Medium,High,Female,No,High,No,No,No,No,Yes
0.6375,0.483333,Medium,Yes,High,High,Male,No,High,Yes,No,No,Yes,Yes
0.85,0.866667,Medium,No,Low,Medium,Male,No,Low,No,Yes,No,Yes,Yes
0.575,0.4,None,Yes,High,High,Female,Yes,Low,No,Yes,No,Yes,Yes
0.3625,0.633333,None,Yes,Medium,High,Male,No,Medium,No,Yes,No,No,Yes
0.6625,0.3,None,No,Medium,Medium,Female,No,Medium,Yes,No,No,Yes,Yes
0.15,0.066667,High,Yes,Low,Low,Female,Yes,Medium,No,Yes,No,No,Yes
0.8875,0.9,Low,No,High,High,Male,Yes,Low,No,No,Yes,No,Yes
0.7375,0.116667,High,No,High,High,Male,Yes,High,Yes,Yes,Yes,Yes,Yes
0.6,0.816667,High,Yes,High,Low,Male,No,Medium,Yes,No,No,No,Yes
0.4,0.1,Low,Yes,High,Low,Male,No,Low,Yes,No,No,No,Yes
0.9,0.4,None,Yes,Medium,High,Male,No,High,No,Yes,Yes,No,Yes
0.2,0.216667,High,Yes,Low,Low,Female,No,Low,No,No,No,No,Yes
0.775,0.466667,Medium,No,Medium,High,Male,No,High,No,No,Yes,No,Yes
0.5,0.433333,Low,Yes,High,High,Female,Yes,Low,No,Yes,No,No,Yes
0.75,0.133333,None,Yes,Low,Low,Female,No,Low,Yes,No,Yes,No,Yes
0.625,0.233333,Medium,No,Low,Low,Female,No,Low,No,Yes,No,Yes,Yes
0.375,0.066667,Medium,Yes,Medium,High,Female,Yes,Low,Yes,No,Yes,Yes,Yes
0.075,0.833333,None,No,Low,High,Male,Yes,High,Yes,Yes,No,Yes,Yes
0.4,0.766667,High,Yes,Medium,Low,Female,Yes,Medium,Yes,No,Yes,Yes,Yes
0.55,0.366667,Low,No,Medium,Medium,Male,No,High,No,Yes,No,Yes,Yes
0.45,0.983333,None,No,Low,Low,Male,No,High,No,Yes,No,No,Yes
0.925,0.583333,High,No,High,Medium,Female,No,High,No,No,No,No,Yes
0.3375,0.6,None,No,High,High,Male,No,High,Yes,Yes,No,No,Yes
0.1375,0.633333,None,No,Low,Low,Male,No,High,No,Yes,Yes,Yes,Yes
0.5375,0.766667,None,No,Medium,High,Female,Yes,Medium,Yes,No,No,Yes,Yes
0.175,0.85,Medium,Yes,Low,High,Male,Yes,High,No,Yes,Yes,Yes,Yes
0.675,0.65,High,No,Medium,High,Female,No,Medium,Yes,Yes,Yes,No,Yes
0.5125,0.8,None,No,Low,Low,Female,No,High,Yes,No,Yes,Yes,Yes
0.575,0.783333,Medium,Yes,Low,Medium,Female,No,Medium,No,Yes,No,No,Yes
0.375,0.783333,Medium,No,Low,High,Female,Yes,Low,Yes,Yes,No,Yes,Yes
0.1125,0.25,None,Yes,Low,Medium,Male,Yes,Medium,No,No,No,Yes,Yes
0.475,0.166667,Medium,No,Low,Medium,Male,Yes,High,No,No,No,Yes,Yes
0.1625,0.95,High,Yes,Medium,High,Female,Yes,Low,No,No,Yes,No,Yes
0.9875,0.016667,Medium,Yes,Low,Medium,Male,No,High,Yes,Yes,Yes,Yes,Yes
0.375,0.1,High,No,Medium,High,Female,No,High,No,Yes,Yes,No,Yes
0.675,0.9,Medium,Yes,Medium,Low,Female,Yes,Low,No,Yes,No,Yes,Yes
0.5125,0.883333,High,No,Medium,Medium,Female,No,High,Yes,No,No,No,Yes
0.325,0.55,High,No,Medium,Low,Female,Yes,High,No,Yes,No,No,Yes
0.5125,0.5,Medium,Yes,Low,High,Male,No,Low,No,Yes,Yes,Yes,Yes
0.6,0.716667,Low,No,Low,High,Female,No,Low,No,Yes,No,Yes,Yes
0.0125,0.533333,Low,No,High,High,Female,No,High,No,No,No,Yes,Yes
0.5125,0.333333,Medium,Yes,High,Low,Male,Yes,Medium,No,No,Yes,No,Yes
0.45,0.45,Low,Yes,High,Medium,Female,No,Medium,No,Yes,No,No,Yes
0.8125,0.016667,Low,No,Low,High,Male,Yes,Low,No,No,Yes,Yes,Yes
0.1375,0.066667,Low,No,High,High,Female,Yes,High,Yes,Yes,No,Yes,Yes
0.3375,0.1,Medium,Yes,High,Medium,Female,No,Medium,Yes,No,Yes,Yes,Yes
1,0.833333,High,Yes,Medium,Low,Female,Yes,Low,Yes,Yes,Yes,No,Yes
0.2,0.9,Low,Yes,Medium,High,Female,No,High,Yes,No,Yes,No,Yes
0.7625,0.766667,Low,No,High,Medium,Female,No,High,No,No,Yes,Yes,Yes
0.225,0.166667,None,No,Low,Medium,Female,Yes,Low,No,Yes,No,No,Yes
0.9,0.883333,High,No,Medium,Medium,Male,No,Medium,Yes,No,No,No,Yes
0.025,0.266667,None,Yes,Low,Medium,Female,No,Low,Yes,Yes,No,No,Yes
0.2,0,Medium,Yes,High,High,Male,Yes,High,No,Yes,Yes,No,Yes
0.8,0.15,Low,Yes,Medium,Medium,Male,Yes,Medium,Yes,No,No,Yes,Yes
0.7375,0.633333,None,No,Low,Low,Female,No,Medium,No,Yes,Yes,Yes,Yes
0.4,0.466667,None,No,High,Low,Female,No,Low,Yes,Yes,No,Yes,Yes
0.75,0.3,Low,No,High,Low,Female,Yes,High,No,No,No,No,Yes
0,0.066667,High,No,Low,Medium,Female,No,High,Yes,Yes,Yes,Yes,Yes
0.3125,0.266667,Medium,No,High,High,Male,No,High,No,No,No,No,Yes
0.8375,0.3,Low,No,Low,Medium,Female,Yes,High,Yes,Yes,No,Yes,Yes
0.925,0.083333,High,Yes,Medium,Medium,Female,Yes,Medium,No,Yes,No,No,Yes
0.0625,0.366667,Low,No,Medium,High,Male,No,Medium,No,No,Yes,Yes,Yes
0.5375,0.766667,None,No,Medium,High,Female,Yes,Medium,Yes,No,No,Yes,Yes
0.2625,0.733333,None,No,Low,Medium,Female,Yes,High,Yes,Yes,No,Yes,Yes
0.7875,0.3,None,Yes,Medium,Low,Female,Yes,High,Yes,Yes,Yes,No,Yes
0.325,0.783333,High,No,High,Low,Female,No,High,No,Yes,No,No,Yes
0.35,0.416667,Low,Yes,Medium,Medium,Female,Yes,Medium,No,Yes,Yes,No,Yes
0.4375,0.3,High,No,High,High,Female,Yes,High,Yes,Yes,No,No,Yes
0.775,0.266667,Low,Yes,Medium,Medium,Male,No,High,Yes,No,Yes,No,Yes
0.0125,0.416667,None,Yes,High,Low,Male,No,Low,Yes,Yes,No,Yes,Yes
0.075,0.35,Medium,No,Medium,High,Female,No,Medium,No,No,Yes,No,Yes
0.35,0.85,None,No,Medium,High,Male,No,Medium,Yes,Yes,Yes,No,Yes
0.1625,0,None,No,Low,Low,Male,Yes,Low,No,No,No,Yes,Yes
0.15,1,None,Yes,Low,Medium,Female,No,Low,No,No,Yes,Yes,Yes
0.425,0.066667,Medium,No,Medium,Medium,Male,No,Low,No,Yes,No,Yes,Yes
0.9125,0.833333,None,No,Medium,Medium,Male,No,High,No,No,Yes,No,Yes
0.9125,0.233333,High,Yes,High,Low,Male,No,High,No,Yes,No,No,Yes
0.05,0.2,Medium,No,Medium,High,Female,No,High,Yes,Yes,Yes,Yes,Yes
0.175,0,Medium,No,Medium,High,Male,Yes,High,No,No,No,Yes,Yes
0.1625,0.166667,None,Yes,High,High,Female,Yes,Low,Yes,No,Yes,Yes,Yes
0.9375,0.733333,Medium,Yes,Medium,Medium,Male,Yes,Medium,Yes,Yes,No,No,Yes
0.975,0.65,None,No,Medium,Medium,Female,No,Medium,No,No,Yes,No,Yes
0.2625,0.033333,Low,Yes,Medium,Medium,Female,No,High,No,No,Yes,No,Yes
0.1,0.366667,Medium,No,High,Medium,Female,No,Medium,Yes,Yes,Yes,No,Yes
0.9375,0.783333,None,Yes,High,High,Female,No,Medium,No,No,Yes,No,Yes
0.1625,0.283333,Medium,No,High,High,Male,No,Medium,Yes,Yes,Yes,No,Yes
0.2625,0.116667,Medium,Yes,High,Low,Male,Yes,Low,Yes,No,No,Yes,Yes
0.85,0.916667,Low,Yes,Medium,High,Male,No,Low,No,Yes,No,No,Yes
0.05,0.65,Low,No,High,Medium,Female,No,Medium,Yes,Yes,No,Yes,Yes
0.2,0.35,High,No,Medium,Low,Female,Yes,Medium,No,Yes,No,Yes,Yes
0.6,0.883333,Low,Yes,Low,Medium,Male,No,Medium,No,Yes,No,No,Yes
0.2,0.9,Low,Yes,Medium,High,Female,No,High,Yes,No,Yes,No,Yes
0.9125,0.366667,Low,Yes,Low,Low,Female,No,Medium,No,No,Yes,No,Yes
0.075,0.35,Medium,No,Medium,High,Female,No,Medium,No,No,Yes,No,Yes
0.2875,0.3,Low,No,High,High,Female,Yes,High,No,No,Yes,No,Yes
0.95,0.366667,Low,No,Medium,High,Female,Yes,High,No,Yes,Yes,No,Yes
0.925,0.2,None,Yes,Medium,Low,Female,No,Low,No,No,No,No,Yes
0.8375,0.7,Medium,No,Low,High,Female,No,Medium,No,Yes,Yes,Yes,Yes
0.425,0.633333,None,Yes,Low,Medium,Female,Yes,Medium,Yes,No,No,No,Yes
0.775,0.25,Medium,Yes,Medium,Low,Female,Yes,Medium,No,Yes,No,No,Yes
0.825,0.716667,None,Yes,Medium,Medium,Male,Yes,Low,No,Yes,No,No,Yes
0.7125,0.116667,None,No,Medium,High,Female,Yes,Low,No,No,No,Yes,Yes
0.0625,0,Medium,Yes,High,High,Female,Yes,Low,Yes,Yes,No,Yes,Yes
0.1,0.333333,High,No,Low,Low,Male,Yes,Low,No,Yes,Yes,Yes,Yes
0.375,0.083333,High,No,Medium,High,Male,No,Low,No,No,No,Yes,Yes
0.8375,0.183333,Low,No,High,High,Male,No,High,No,Yes,No,No,Yes
0.275,0.166667,Medium,Yes,High,Medium,Female,No,High,Yes,Yes,No,No,Yes
0.5125,0.333333,Medium,No,Medium,High,Female,No,Low,No,Yes,No,Yes,Yes
0.95,0.35,High,No,Medium,Medium,Male,Yes,High,No,Yes,Yes,No,Yes
0.3125,0.783333,High,Yes,High,Low,Female,Yes,High,Yes,No,Yes,Yes,Yes
0.5125,0.833333,Medium,No,High,Low,Female,Yes,Low,Yes,No,Yes,Yes,Yes
0.4625,0.416667,None,Yes,Medium,Medium,Female,No,Medium,No,Yes,Yes,No,Yes
0.625,0.55,None,Yes,Medium,Medium,Female,Yes,Medium,No,Yes,Yes,No,Yes
0.1,0.916667,Low,Yes,High,Medium,Male,No,Low,No,No,Yes,Yes,Yes
0.4625,0.966667,High,Yes,Low,High,Male,No,Low,Yes,No,Yes,Yes,Yes
0.275,0.233333,Low,No,Low,Low,Male,No,Medium,No,No,Yes,Yes,Yes
0.725,0.566667,Low,No,High,Medium,Male,No,Medium,Yes,No,Yes,Yes,Yes
0.625,0.883333,Low,No,High,High,Male,Yes,High,No,No,No,Yes,Yes
0,0.066667,High,No,Low,Medium,Female,No,High,Yes,Yes,Yes,Yes,Yes
0.8875,0.033333,Medium,Yes,Medium,High,Female,Yes,Low,No,No,No,Yes,Yes
0.375,0.416667,Medium,Yes,High,High,Male,Yes,High,Yes,No,No,No,Yes
0.4,0.166667,Low,No,Medium,Low,Male,No,High,Yes,Yes,Yes,Yes,Yes
0.575,0.966667,Low,No,Medium,Medium,Male,No,High,No,No,No,Yes,Yes
0.175,0.25,High,Yes,Low,Medium,Female,No,Low,Yes,Yes,No,No,Yes
0.4875,0.783333,None,Yes,Low,Medium,Male,No,High,Yes,Yes,No,Yes,Yes
0.4625,0.216667,Medium,No,High,Low,Male,No,Medium,No,Yes,Yes,Yes,Yes
0.6875,0.683333,None,Yes,High,High,Female,Yes,Low,No,Yes,No,Yes,Yes
0.425,0.883333,Medium,Yes,Medium,Low,Female,Yes,Low,Yes,No,No,No,Yes
0.5,0.4,None,No,High,Low,Female,Yes,Medium,No,Yes,Yes,Yes,Yes
0.4875,0.466667,Medium,Yes,Medium,Medium,Female,Yes,Low,Yes,Yes,Yes,No,Yes
0.3625,0.916667,High,No,Medium,Medium,Female,No,Medium,No,No,Yes,Yes,Yes
0.1625,0.683333,High,No,Medium,Low,Female,Yes,Low,Yes,Yes,No,No,Yes
0.6,0.7,Low,No,Low,Medium,Female,No,High,Yes,No,Yes,Yes,Yes
0.2875,0.35,None,Yes,Low,Low,Female,No,Medium,Yes,No,Yes,Yes,Yes
0.3625,0.966667,None,No,Medium,Medium,Female,No,High,No,No,No,Yes,Yes
0.475,0.55,High,Yes,High,High,Male,No,High,No,No,Yes,Yes,Yes
0.5125,0.633333,High,No,High,Medium,Female,No,High,Yes,Yes,No,Yes,Yes
0.0625,0.366667,Low,No,Medium,High,Male,No,Medium,No,No,Yes,Yes,Yes
0.7875,0.683333,None,No,Low,Medium,Female,No,Low,Yes,No,Yes,No,Yes
0.1875,0.15,Low,No,Low,Low,Male,Yes,Medium,Yes,No,No,No,Yes
0.2875,0.866667,High,Yes,Medium,Low,Female,No,High,Yes,Yes,Yes,No,Yes
0.8875,0.283333,Medium,No,Medium,Low,Male,Yes,Low,Yes,Yes,Yes,Yes,Yes
0.625,0.55,High,No,High,Medium,Male,Yes,Low,No,No,Yes,Yes,Yes
0.05,0.233333,Low,Yes,Low,High,Male,Yes,Low,No,Yes,Yes,Yes,Yes
0.3625,0.316667,High,Yes,Medium,Low,Female,No,High,Yes,Yes,No,Yes,Yes
0.625,0.5,None,No,Medium,Medium,Male,No,Low,Yes,Yes,No,Yes,Yes
0.7125,0.116667,None,No,Medium,High,Female,Yes,Low,No,No,No,Yes,Yes
0.6125,0.716667,Medium,Yes,Low,High,Female,Yes,Low,No,Yes,No,Yes,Yes
0.775,0.55,High,No,Low,High,Female,No,High,Yes,No,Yes,No,Yes
0.875,0.25,High,No,High,High,Female,No,Low,No,Yes,No,No,Yes
0.725,0.95,Medium,Yes,Medium,Low,Male,Yes,High,No,No,No,Yes,Yes
0.2125,0.6,High,No,Medium,Medium,Female,No,Medium,No,Yes,No,Yes,Yes
0.825,0.583333,Medium,Yes,Medium,High,Male,No,High,Yes,No,Yes,Yes,Yes
0.4,0.033333,Low,No,Low,High,Female,No,Low,No,Yes,Yes,Yes,Yes
0.85,0.55,High,No,Medium,High,Male,Yes,High,No,Yes,Yes,No,Yes
0.4875,0.466667,Medium,Yes,Medium,Medium,Female,Yes,Low,Yes,Yes,Yes,No,Yes
0.975,0.433333,Medium,Yes,Low,Medium,Female,No,Low,No,Yes,Yes,No,Yes
0.075,0.416667,Low,No,Low,High,Male,Yes,High,Yes,No,No,No,Yes
0.2,0.566667,High,No,High,Medium,Female,Yes,Low,No,No,No,No,Yes
0.175,0.35,Low,No,Medium,High,Male,Yes,High,Yes,Yes,Yes,No,Yes
0.5625,0.916667,None,Yes,Medium,Low,Male,Yes,High,No,No,Yes,No,Yes
0.75,0.216667,Low,No,Medium,High,Male,Yes,Low,Yes,No,Yes,Yes,Yes
0.575,0.866667,Low,No,Medium,High,Female,Yes,Low,Yes,No,No,Yes,Yes
0.5875,0.633333,None,Yes,High,Low,Male,Yes,High,No,Yes,Yes,No,Yes
0.3625,0.633333,None,Yes,Medium,High,Male,No,Medium,No,Yes,No,No,Yes
0.8875,0.533333,Medium,Yes,Medium,Low,Male,No,Medium,No,No,No,No,Yes
0.9125,0.55,None,Yes,Low,Medium,Male,No,Medium,Yes,No,Yes,Yes,Yes
0.775,0.266667,None,Yes,Medium,Medium,Female,Yes,Medium,Yes,Yes,No,No,Yes
0.2125,0.816667,High,No,Low,Low,Female,Yes,Medium,Yes,Yes,No,No,Yes
0.35,0.183333,None,No,High,Medium,Female,No,Low,Yes,No,Yes,Yes,Yes
0.9875,1,High,Yes,Medium,High,Female,No,Medium,Yes,Yes,No,Yes,Yes
0.4875,0.15,None,Yes,Medium,High,Female,Yes,Medium,No,Yes,Yes,No,Yes
0.875,0.583333,High,No,Low,Low,Male,Yes,Low,No,Yes,No,Yes,Yes
0.525,0.55,Low,No,Low,Low,Male,Yes,High,Yes,No,Yes,No,Yes
0.225,0.75,Medium,No,High,High,Female,No,Medium,Yes,Yes,No,Yes,Yes
0.825,0.866667,Low,No,High,Low,Female,Yes,High,No,Yes,No,No,Yes
0.975,0.166667,None,Yes,Medium,Medium,Male,No,Medium,Yes,No,No,No,Yes
0.1375,0.266667,Low,No,High,Medium,Male,No,Low,No,Yes,Yes,Yes,Yes
0.0375,0.366667,None,No,Low,Medium,Male,No,Medium,Yes,Yes,No,No,Yes
0.6,0.716667,Low,No,Low,High,Female,No,Low,No,Yes,No,Yes,Yes
0.325,0.766667,Medium,Yes,High,Low,Male,Yes,Low,No,Yes,Yes,No,Yes
0.15,0.75,High,No,Low,High,Male,Yes,Medium,Yes,Yes,No,No,Yes
0.375,0.116667,High,No,Medium,Medium,Male,Yes,High,Yes,Yes,No,No,Yes
0.725,0.033333,Medium,No,High,High,Male,No,High,No,No,Yes,Yes,Yes
0.925,0.2,Medium,Yes,High,Low,Female,No,Low,No,No,Yes,Yes,Yes
0.7375,0.633333,High,No,Low,High,Male,Yes,High,No,No,No,Yes,Yes
0.9375,0.166667,Low,No,High,High,Male,No,High,Yes,Yes,Yes,No,Yes
0.2875,0,Medium,Yes,Low,Medium,Female,Yes,High,No,Yes,No,Yes,Yes
0.0625,0.2,None,No,Low,Medium,Male,No,Medium,No,Yes,Yes,No,Yes
0.8875,0.283333,Medium,No,Medium,Low,Male,Yes,Low,Yes,Yes,Yes,Yes,Yes
0.625,0.75,Low,No,High,Medium,Female,No,High,No,Yes,No,Yes,Yes
0.85,0.716667,Medium,No,Low,High,Male,No,Medium,No,Yes,No,Yes,Yes
0.0625,0.516667,Medium,No,Medium,High,Female,Yes,Medium,Yes,Yes,Yes,Yes,Yes
0.7,0.1,High,No,Low,Medium,Male,No,High,No,No,Yes,No,Yes
0.85,0.816667,Medium,No,Low,Low,Female,Yes,High,Yes,No,No,No,Yes
0.5625,0.183333,Low,Yes,Medium,High,Male,Yes,Low,No,No,Yes,Yes,Yes
0.025,0.583333,High,No,High,High,Female,Yes,Medium,No,Yes,Yes,Yes,Yes
0.5,0.75,Medium,Yes,High,Medium,Male,Yes,High,Yes,Yes,No,Yes,Yes
0.8625,0.933333,Low,Yes,High,High,Male,Yes,Low,Yes,Yes,No,Yes,Yes
0.4625,0.3,Low,Yes,High,Medium,Male,No,Medium,Yes,No,Yes,Yes,Yes
0.9875,0.283333,Low,No,Low,Medium,Male,No,Low,Yes,Yes,Yes,No,Yes
0.3875,0.583333,Medium,No,Medium,Medium,Male,Yes,High,No,Yes,Yes,Yes,Yes
0.525,0.266667,None,Yes,Medium,High,Female,No,Low,Yes,No,No,No,Yes
0.825,0.783333,None,No,Medium,Low,Female,No,Low,No,No,Yes,Yes,Yes
0.35,0.833333,None,Yes,Medium,Low,Male,Yes,Medium,No,Yes,Yes,Yes,Yes
0.45,0.35,Low,Yes,Medium,High,Male,Yes,High,No,No,Yes,Yes,Yes
0.1875,0.15,Low,No,Low,Low,Male,Yes,Medium,Yes,No,No,No,Yes
0.6125,0.066667,High,No,High,Medium,Male,No,Medium,Yes,No,No,Yes,Yes
0.4125,0.2,None,No,Low,High,Male,Yes,Medium,No,Yes,Yes,Yes,Yes
0.5125,0.05,Medium,Yes,Medium,Low,Female,Yes,Medium,Yes,No,No,No,Yes
0.975,0.066667,None,Yes,High,Low,Female,Yes,Medium,Yes,Yes,Yes,No,Yes
0.85,0.116667,Low,Yes,High,Medium,Male,No,Low,No,Yes,No,No,Yes
0.3375,0.116667,None,No,Medium,High,Female,Yes,Low,Yes,Yes,No,Yes,Yes
0.025,0.183333,High,Yes,High,Medium,Male,Yes,High,Yes,No,Yes,Yes,Yes
0.4625,0.083333,None,Yes,High,Low,Male,Yes,Medium,No,Yes,No,Yes,Yes
0.501778,0.383333,High,No,High,Medium,Male,No,Low,Yes,Yes,No,Yes,Yes
0.2,0.75,Medium,No,Medium,Low,Female,No,High,No,No,No,Yes,Yes
0.6625,0.683333,High,No,High,High,Female,Yes,High,No,Yes,No,Yes,Yes
0.2625,0.25,None,No,Low,Low,Female,No,High,No,Yes,No,Yes,Yes
0.25,0.25,Medium,Yes,Medium,Low,Male,No,Low,Yes,No,Yes,No,Yes
0.075,0.833333,None,No,Low,High,Male,Yes,High,Yes,Yes,No,Yes,Yes
0.225,0.566667,None,No,High,Low,Male,No,High,No,Yes,No,Yes,Yes
0.6125,0.75,None,No,High,High,Female,Yes,High,No,No,No,No,Yes
0.4,0.1,Low,Yes,High,Low,Male,No,Low,Yes,No,No,No,Yes
0.1625,0.783333,Low,Yes,Medium,Medium,Male,Yes,Low,Yes,No,Yes,No,Yes
0.2,0.783333,None,Yes,Medium,Medium,Female,No,High,Yes,Yes,No,No,Yes
0.9375,0.15,High,No,Low,High,Female,Yes,Medium,No,No,Yes,Yes,Yes
0.225,0.416667,Medium,No,Low,Low,Male,Yes,Low,Yes,No,No,No,Yes
0.5625,0.7,High,Yes,High,Medium,Male,No,Low,Yes,No,No,Yes,Yes
0.575,0.783333,High,Yes,Low,Low,Male,No,Medium,No,Yes,Yes,No,Yes
0.725,0.116667,Medium,Yes,Low,Medium,Female,Yes,High,Yes,Yes,No,No,Yes
0.7,0.7,Low,No,Medium,High,Male,No,Low,Yes,Yes,Yes,No,Yes
0.95,0.2,None,No,Medium,Medium,Female,No,Low,No,Yes,Yes,No,Yes
0.625,0.633333,None,Yes,Low,High,Female,No,High,No,Yes,No,No,Yes
0.1625,0.233333,None,Yes,Low,Low,Female,No,Low,No,Yes,Yes,Yes,Yes
0.35,0.416667,Low,Yes,Medium,Medium,Female,Yes,Low,No,No,Yes,Yes,Yes
1,0.133333,Low,Yes,High,Low,Female,Yes,Low,Yes,No,Yes,No,Yes
0.45,0.483333,Medium,Yes,Medium,Low,Male,No,Medium,No,Yes,Yes,No,Yes
0.525,0.683333,Low,Yes,Low,High,Male,No,Medium,No,Yes,Yes,Yes,Yes
0.9375,0.066667,High,No,Medium,High,Male,No,High,No,No,No,No,Yes
0.075,0.933333,Low,Yes,Low,Low,Male,No,High,No,No,Yes,Yes,Yes
0.8625,0.766667,High,No,Medium,High,Female,Yes,Low,Yes,No,No,No,Yes
0.375,0.9,Low,Yes,Medium,Low,Male,Yes,Medium,No,Yes,Yes,No,Yes
0.375,0.316667,Medium,No,Medium,Low,Female,Yes,Medium,Yes,Yes,Yes,No,Yes
0.325,0.716667,Low,No,High,Medium,Male,No,Low,Yes,No,No,Yes,Yes
0.75,0.683333,High,No,Low,Medium,Female,Yes,High,No,Yes,No,No,Yes
0.25,0.333333,Medium,No,Low,Low,Female,Yes,High,No,Yes,No,Yes,Yes
0.925,0.833333,None,Yes,High,Medium,Female,Yes,Low,No,Yes,Yes,Yes,Yes
0.7375,0.3,None,No,Medium,Medium,Female,No,Low,No,Yes,No,Yes,Yes
0.1625,0.6,None,No,Low,High,Female,Yes,Medium,No,Yes,Yes,No,Yes
0.4125,0.2,None,No,Low,High,Male,Yes,Medium,No,Yes,Yes,Yes,Yes
0.5125,0.1,High,Yes,Low,High,Female,No,Medium,No,Yes,No,No,Yes
0.8375,0.033333,None,No,High,Medium,Male,No,Low,Yes,No,Yes,Yes,Yes
0.2125,0.633333,None,No,High,High,Male,Yes,Medium,No,No,Yes,No,Yes
0.4375,0.183333,High,Yes,Medium,Low,Male,Yes,Medium,No,Yes,No,No,Yes
0.7125,0.65,None,Yes,Medium,Low,Male,Yes,High,No,No,Yes,No,Yes
0.75,0.383333,Medium,No,High,Medium,Female,Yes,Medium,No,No,No,Yes,Yes
0.0375,0.383333,High,Yes,Low,Low,Male,No,Low,No,No,Yes,Yes,Yes
0.575,0.083333,None,Yes,High,Low,Female,No,Medium,Yes,Yes,Yes,Yes,Yes
0.5,0.866667,High,No,Low,High,Female,No,Medium,No,Yes,Yes,Yes,Yes
0.0375,0.5,Medium,No,High,Medium,Male,Yes,Low,Yes,Yes,Yes,No,Yes
0.5,0.4,None,No,High,Low,Female,Yes,Medium,No,Yes,Yes,Yes,Yes
0.575,0.4,None,Yes,High,High,Female,Yes,Low,No,Yes,No,Yes,Yes
0.6,0.316667,None,No,High,High,Female,Yes,Low,Yes,Yes,Yes,Yes,Yes
0.3375,0.4,High,No,Medium,High,Female,Yes,Medium,Yes,Yes,No,No,Yes
0.4625,0.783333,Low,No,High,High,Female,No,Medium,Yes,Yes,No,Yes,Yes
0.225,0.433333,Medium,No,Medium,High,Female,Yes,Medium,No,No,No,Yes,Yes
0.925,0.2,None,Yes,Medium,Low,Female,No,Low,No,No,No,No,Yes
0.675,0.65,High,No,Medium,High,Female,No,Medium,Yes,Yes,Yes,No,Yes
0.15,0.816667,Medium,Yes,Medium,Low,Female,No,Low,Yes,Yes,No,No,Yes
0.275,0.166667,Medium,Yes,High,Medium,Female,No,High,Yes,Yes,No,No,Yes
0.8,0.1,Medium,No,Medium,Medium,Female,No,High,Yes,Yes,Yes,Yes,Yes
0.2125,0.166667,High,No,Low,Low,Male,Yes,High,No,Yes,No,Yes,Yes
0.5375,0.483333,High,No,Medium,High,Female,Yes,Low,No,Yes,No,No,Yes
0.85,0.916667,Low,Yes,Medium,High,Male,No,Low,No,Yes,No,No,Yes
0.1125,0.033333,High,Yes,Low,Medium,Male,Yes,High,Yes,Yes,Yes,Yes,Yes
0.6125,0.716667,Medium,Yes,Low,High,Female,Yes,Low,No,Yes,No,Yes,Yes
0.0375,0.366667,None,No,Low,Medium,Male,No,Medium,Yes,Yes,No,No,Yes
0.2,0.5,Low,Yes,Low,Low,Male,Yes,Low,No,No,No,No,Yes
0.7375,0,High,Yes,High,Low,Female,Yes,Low,Yes,Yes,Yes,Yes,Yes
0.7375,0.35,High,No,Medium,Medium,Female,No,High,No,Yes,No,No,Yes
0.0875,0.933333,Low,No,High,Low,Female,Yes,Low,Yes,Yes,No,Yes,Yes
0.95,0.333333,None,No,High,Low,Female,No,High,No,Yes,No,Yes,Yes
0.1625,0.85,Low,No,Medium,High,Male,No,Medium,No,No,No,Yes,Yes
0.7875,0.066667,Medium,No,High,Medium,Male,No,Medium,Yes,No,Yes,Yes,Yes
0.125,0.033333,Low,Yes,Low,High,Female,Yes,High,Yes,No,No,No,Yes
0.15,0.916667,None,No,High,Medium,Female,No,High,Yes,Yes,Yes,No,Yes
0.75,0.766667,Low,No,High,High,Male,No,Medium,Yes,No,Yes,No,Yes
0.7875,0.3,None,Yes,Medium,Low,Female,Yes,High,Yes,Yes,Yes,No,Yes
0.5375,0.7,High,Yes,Medium,High,Female,Yes,Low,Yes,No,Yes,No,Yes
0.025,0.55,None,Yes,Medium,High,Male,No,High,Yes,No,No,Yes,Yes
0.275,0.733333,None,Yes,High,Low,Male,No,High,Yes,No,No,Yes,Yes
0.775,0.583333,High,No,Medium,Medium,Female,Yes,Medium,Yes,No,Yes,Yes,Yes
0.1,0.533333,None,Yes,Low,Low,Male,No,High,Yes,Yes,No,Yes,Yes
0.5,0.45,Low,No,High,Low,Male,Yes,Low,No,No,Yes,Yes,Yes
0.1875,0.2,Low,Yes,Medium,High,Male,No,Medium,No,Yes,Yes,Yes,Yes
0.1,0.416667,None,No,Low,High,Male,Yes,Medium,No,No,No,Yes,Yes
0.325,0.2,Medium,No,Low,Medium,Female,No,High,No,No,Yes,Yes,Yes
0.175,0.85,Medium,Yes,Low,High,Male,Yes,High,No,Yes,Yes,Yes,Yes
0.1,0.333333,High,No,Low,Low,Male,Yes,Low,No,Yes,Yes,Yes,Yes
0.8125,0.75,Low,Yes,Low,Medium,Female,Yes,High,Yes,Yes,No,Yes,Yes
0.4,0.383333,None,No,Low,High,Male,No,Low,Yes,Yes,Yes,No,Yes
0.75,0.533333,Low,Yes,Low,Medium,Male,No,Medium,Yes,No,No,No,Yes
0.4,0.566667,Low,No,High,Low,Female,No,High,Yes,Yes,Yes,Yes,Yes
0.825,0.566667,Medium,No,Medium,High,Male,Yes,High,Yes,No,Yes,No,Yes
0.0125,1,Medium,No,High,Low,Female,Yes,Low,No,Yes,No,No,Yes
0.8125,0.783333,Medium,Yes,Medium,Low,Female,Yes,Medium,Yes,No,No,Yes,Yes
0.8375,0.466667,None,No,Low,Low,Male,No,Medium,Yes,No,Yes,Yes,Yes
0.05,0.05,Medium,Yes,Medium,Medium,Male,No,Low,No,Yes,No,No,Yes
0.375,0,None,Yes,High,Medium,Female,Yes,Medium,Yes,No,Yes,No,Yes
0.725,0.5,None,No,Medium,Low,Male,Yes,Medium,Yes,No,Yes,Yes,Yes
0.3875,0.833333,Low,Yes,Medium,High,Female,No,High,No,Yes,No,No,Yes
0.975,0.5,None,No,High,High,Male,Yes,Low,Yes,Yes,No,Yes,Yes
0.45,0.333333,Medium,Yes,High,High,Male,Yes,Medium,No,No,Yes,Yes,Yes
0.375,0.283333,High,Yes,Low,Medium,Male,Yes,Low,Yes,No,No,No,Yes
0.35,0.416667,Low,Yes,Medium,Medium,Female,Yes,Medium,No,Yes,Yes,No,Yes
0.7875,0.05,Medium,No,Medium,High,Female,Yes,Medium,No,No,Yes,Yes,Yes
0.45,0.033333,High,No,Medium,Medium,Male,No,High,No,No,No,Yes,Yes
0.375,0.366667,High,No,Low,Low,Female,Yes,High,No,Yes,No,Yes,Yes
0.1625,0.55,Low,No,Low,High,Male,Yes,Low,Yes,No,Yes,No,Yes
0.1625,0.666667,Low,Yes,High,Low,Male,Yes,High,No,Yes,No,No,Yes
0.075,0.2,High,Yes,Low,Medium,Male,Yes,High,Yes,Yes,Yes,No,Yes
0.2375,0.333333,Low,Yes,Low,High,Male,Yes,Low,No,Yes,No,Yes,Yes
0.875,0.7,Medium,Yes,Low,Low,Male,No,High,Yes,No,Yes,No,Yes
0.9125,0.6,High,Yes,Low,Medium,Male,No,High,No,No,No,No,Yes
0,0.7,None,No,Low,High,Male,No,Low,No,Yes,Yes,Yes,Yes
0.025,0.566667,None,No,Low,Low,Female,No,High,Yes,No,Yes,Yes,Yes
0.9,0.366667,None,Yes,High,Low,Female,No,Low,Yes,Yes,No,No,Yes
0.15,0.616667,None,No,High,High,Male,Yes,Medium,No,No,No,No,Yes
0.3625,0.566667,None,Yes,High,Low,Female,No,High,No,Yes,No,No,Yes
0.425,0.3,Low,No,Low,High,Female,No,Medium,No,No,No,No,Yes
0.95,0.2,None,No,Medium,Medium,Female,No,Low,No,Yes,Yes,No,Yes
0.7125,0.2,High,Yes,High,Medium,Female,Yes,High,No,No,Yes,No,Yes
0.975,0.35,Low,Yes,Low,High,Female,Yes,High,No,Yes,No,No,Yes
0.475,0.383333,None,No,High,Low,Female,Yes,High,No,No,No,Yes,Yes
0.55,0.566667,High,Yes,Medium,Medium,Female,No,Low,No,No,No,Yes,Yes
0.325,0.966667,Medium,Yes,Medium,Low,Female,No,Medium,No,No,Yes,No,Yes
0.8125,0.55,Low,No,Low,Low,Female,Yes,Medium,Yes,No,No,No,Yes
0.475,0.383333,None,No,High,Low,Female,Yes,High,No,No,No,Yes,Yes
0.4625,0.333333,Medium,Yes,High,High,Male,No,High,No,Yes,No,Yes,Yes
0.3,0.3,None,No,High,Medium,Female,Yes,Low,Yes,No,No,Yes,Yes
0.4625,0.783333,Low,No,High,High,Female,No,Medium,Yes,Yes,No,Yes,Yes
0.6625,0.766667,Low,No,Low,Medium,Female,No,High,No,No,No,No,Yes
0.25,0.583333,Low,Yes,High,Medium,Male,Yes,Low,Yes,No,No,Yes,Yes
0.5125,0.333333,Medium,No,Medium,High,Female,No,Low,No,Yes,No,Yes,Yes
1,0.45,Low,Yes,Low,Low,Female,Yes,Low,Yes,Yes,No,Yes,Yes
0.7,0.15,High,Yes,Low,Low,Female,Yes,High,No,No,Yes,No,Yes
0.275,0.216667,Low,No,Low,Medium,Female,No,Medium,No,Yes,No,No,Yes
0.2125,0.633333,None,No,High,High,Male,Yes,Medium,No,No,Yes,No,Yes
0.4875,0.766667,Low,Yes,Medium,Low,Female,Yes,Medium,Yes,No,Yes,No,Yes
0.75,0.133333,None,Yes,Low,Low,Female,No,Low,Yes,No,Yes,No,Yes
0.9125,0.55,None,Yes,Low,Medium,Male,No,Medium,Yes,No,Yes,Yes,Yes
0.225,0.366667,Low,No,Medium,High,Male,Yes,High,No,No,No,Yes,Yes
0.125,0.5,Medium,Yes,Medium,Medium,Male,No,Medium,Yes,Yes,Yes,No,Yes
0.125,0.433333,Medium,No,Low,Medium,Female,Yes,Medium,No,Yes,No,No,Yes
0.1,0.4,None,No,High,Low,Male,No,Low,Yes,No,Yes,No,Yes
0.125,0.133333,Medium,No,Low,High,Female,Yes,High,No,No,Yes,Yes,Yes
0.0875,0.266667,None,No,Medium,High,Male,Yes,Medium,Yes,Yes,Yes,No,Yes
0.1125,0.25,None,No,Medium,High,Female,Yes,Medium,Yes,Yes,Yes,No,Yes
0.8625,0.933333,None,Yes,High,Low,Male,No,Medium,No,No,No,No,Yes
0.0375,0.766667,None,Yes,Low,Medium,Female,No,Medium,Yes,No,No,No,Yes
0.55,0.016667,Medium,No,Low,Medium,Female,Yes,Medium,No,Yes,Yes,Yes,Yes
0.25,1,Medium,No,High,High,Female,No,Medium,No,Yes,Yes,No,Yes
0.8625,0.733333,Medium,Yes,High,Medium,Female,No,Low,No,No,No,Yes,Yes
0.7875,0.933333,Low,No,Medium,Medium,Male,No,Low,Yes,Yes,Yes,No,Yes
0.775,0.066667,Low,No,Low,Low,Female,Yes,Low,No,No,Yes,No,Yes
0.45,0.533333,High,No,Medium,High,Female,No,Medium,Yes,Yes,No,No,Yes
0.7,0.05,None,Yes,High,Medium,Female,No,Medium,No,No,Yes,No,Yes
0.975,0.8,High,No,Low,Medium,Female,No,Low,Yes,Yes,No,No,Yes
0.325,0.466667,Low,Yes,Medium,Low,Female,No,High,Yes,Yes,Yes,Yes,Yes
0.8875,0.033333,Medium,Yes,Medium,High,Female,Yes,Low,No,No,No,Yes,Yes
0.325,0.2,Medium,Yes,Medium,Medium,Male,Yes,High,Yes,No,No,No,Yes
0.7625,0.666667,None,Yes,Low,High,Male,Yes,High,No,Yes,No,No,Yes
0.875,0.916667,None,Yes,Medium,Medium,Male,Yes,Medium,Yes,No,No,Yes,Yes
0.85,0.716667,High,Yes,Medium,Low,Female,No,Medium,No,No,Yes,No,Yes
0.3875,0.283333,Medium,Yes,Medium,Low,Male,No,High,No,Yes,Yes,Yes,Yes
0.3375,0.583333,Medium,No,High,Low,Male,Yes,High,No,Yes,No,Yes,Yes
0.8625,0.1,Low,No,Low,High,Male,No,High,No,No,No,No,Yes
0.5125,0.516667,High,Yes,Low,Medium,Female,Yes,Medium,Yes,No,No,No,Yes
0.3875,0.3,High,Yes,High,Low,Male,No,Medium,Yes,No,Yes,No,Yes
0.85,0.716667,High,Yes,Medium,Low,Female,No,Medium,No,No,Yes,No,Yes
0.925,0.266667,Low,Yes,Medium,High,Male,Yes,Medium,Yes,No,No,No,Yes
0.3875,0.133333,Medium,Yes,High,Medium,Female,No,Medium,No,No,No,No,Yes
0.7875,0.9,High,Yes,Medium,Low,Female,No,High,Yes,No,Yes,No,Yes
0.875,0.7,Medium,Yes,Low,Low,Male,No,High,Yes,No,Yes,No,Yes
0.2875,1,Medium,Yes,High,Low,Male,No,High,Yes,No,No,No,Yes
0.8625,0.1,Low,No,Low,High,Male,No,High,No,No,No,No,Yes
0.9,0.116667,Medium,No,High,High,Male,No,Low,No,Yes,No,No,Yes
0.175,0.933333,High,Yes,Low,Medium,Female,No,Low,No,No,Yes,No,Yes
0.1125,0.916667,Medium,No,High,High,Male,No,Low,Yes,Yes,No,No,Yes
0.875,0.916667,None,Yes,Medium,Medium,Male,Yes,Medium,Yes,No,No,Yes,Yes
0.2875,0.383333,Low,Yes,Low,Low,Female,No,Medium,Yes,Yes,Yes,No,Yes
0.975,0.966667,High,No,Medium,Medium,Male,No,High,No,No,No,Yes,Yes
0.7375,0.633333,None,No,Low,Low,Female,No,Medium,No,Yes,Yes,Yes,Yes
0.85,0.083333,Low,Yes,Medium,High,Female,No,Low,No,Yes,Yes,No,Yes
0.1375,0.166667,None,No,High,High,Female,Yes,Medium,Yes,Yes,No,No,Yes
0.025,0.566667,None,No,Low,Low,Female,No,High,Yes,No,Yes,Yes,Yes
0.6125,0,Low,No,Medium,High,Male,No,Low,No,Yes,No,Yes,Yes
0.925,0.833333,None,Yes,High,Medium,Female,Yes,Low,No,Yes,Yes,Yes,Yes
0.6,0.533333,High,No,Medium,Low,Female,No,Medium,No,No,No,No,Yes
0.35,0.483333,Low,No,Low,Medium,Male,No,Medium,No,Yes,No,Yes,Yes
0.8875,0.3,Low,No,High,High,Female,No,Low,Yes,Yes,No,Yes,Yes
0.6,0.216667,High,Yes,Low,High,Female,Yes,Medium,Yes,No,No,No,Yes
0.2875,0.3,Low,No,High,High,Female,Yes,High,No,No,Yes,No,Yes
0.575,0.783333,Medium,Yes,Low,Medium,Female,No,Medium,No,Yes,No,No,Yes
0.3375,0.416667,Low,Yes,Low,Low,Female,Yes,High,Yes,Yes,No,No,Yes
0.45,0.25,Medium,Yes,Low,Low,Female,No,Medium,No,No,Yes,No,Yes
0.6375,0,High,No,Medium,High,Female,Yes,Low,Yes,Yes,Yes,Yes,Yes
0.5625,0.133333,Low,No,High,High,Male,No,Low,No,No,No,Yes,Yes
0.8125,0.316667,Medium,No,Medium,Medium,Female,Yes,High,No,Yes,Yes,Yes,Yes
0.9,0.495962,Medium,Yes,Medium,Low,Male,No,Medium,Yes,No,Yes,No,Yes
0.5125,0.516667,Low,Yes,High,High,Male,No,High,No,Yes,Yes,No,Yes
0.0375,0.383333,High,Yes,Low,Low,Male,No,Low,No,No,Yes,Yes,Yes
0.9875,0.3,High,Yes,Low,High,Male,Yes,Low,Yes,No,No,No,Yes
0.575,0.6,High,No,Low,Low,Male,No,Medium,No,Yes,Yes,No,Yes
0.425,0.083333,High,Yes,High,Low,Female,No,Medium,No,Yes,Yes,No,Yes
0.6375,1,High,Yes,High,High,Male,Yes,Medium,No,No,No,Yes,Yes
0.025,0.8,None,Yes,Medium,Low,Female,No,High,No,Yes,Yes,No,Yes
0.9625,0.05,High,No,High,Low,Male,No,Medium,Yes,No,No,No,Yes
0.775,0.083333,Low,Yes,High,Medium,Male,Yes,High,No,Yes,Yes,Yes,Yes
0.1,0.683333,Medium,Yes,Low,High,Female,Yes,High,No,No,No,No,Yes
0.8875,0.35,Low,Yes,High,High,Male,No,Medium,No,Yes,Yes,No,Yes
0.5,0.883333,None,Yes,Low,High,Female,Yes,High,No,No,No,No,Yes
0.85,0.716667,High,Yes,Medium,Low,Female,No,Medium,No,No,Yes,No,Yes
0.4625,0.333333,High,Yes,High,Medium,Male,Yes,Low,Yes,Yes,Yes,Yes,Yes
0.5875,0.9,Low,No,High,High,Female,Yes,Low,Yes,Yes,Yes,No,Yes
0.925,0.516667,None,Yes,Low,Medium,Female,No,High,No,Yes,No,Yes,Yes
0.0875,0.016667,Medium,Yes,Low,High,Female,Yes,High,Yes,Yes,No,No,Yes
0.575,0.316667,Medium,Yes,Low,Low,Male,No,Medium,Yes,No,No,Yes,Yes
0.775,0.383333,High,No,Medium,High,Male,Yes,High,No,No,No,No,Yes
0.575,0.6,None,No,High,Medium,Female,No,Medium,Yes,No,No,No,Yes
0.0125,0.283333,Low,No,Medium,Medium,Female,No,High,No,No,Yes,No,Yes
0.3625,0.766667,None,Yes,Low,Low,Male,No,High,No,No,Yes,No,Yes
0.4125,0.583333,High,No,Medium,Medium,Male,Yes,Medium,Yes,Yes,Yes,No,Yes
0.1625,0.233333,None,Yes,Low,Low,Female,No,Low,No,Yes,Yes,Yes,Yes
0.05,0.666667,Low,Yes,Medium,High,Male,No,Low,No,Yes,No,Yes,Yes
0.125,0.266667,High,Yes,High,Medium,Female,No,Medium,Yes,No,Yes,Yes,Yes
0.475,0.6,None,No,High,Medium,Female,No,Low,No,No,No,Yes,Yes
0.8375,0.483333,None,Yes,High,Medium,Female,Yes,Low,Yes,Yes,No,No,Yes
0.6375,0.95,None,No,Low,Medium,Female,No,Low,Yes,No,Yes,No,Yes
0.55,0.733333,None,No,Medium,High,Female,No,Medium,Yes,No,No,No,Yes
0.025,0.8,None,Yes,Medium,Low,Female,No,High,No,Yes,Yes,No,Yes
0.6625,0.6,Medium,No,High,Medium,Female,No,Low,Yes,Yes,No,No,Yes
0.2125,0.216667,None,No,Low,High,Male,Yes,Medium,Yes,No,Yes,No,Yes
0.5,0.45,Low,No,High,Low,Male,Yes,Low,No,No,Yes,Yes,Yes
0.1875,0.55,None,No,Low,Medium,Male,No,Medium,No,No,Yes,No,Yes
0.7625,0.666667,None,Yes,Low,High,Male,Yes,High,No,Yes,No,No,Yes
0.1875,0.6,Low,No,Medium,High,Female,Yes,Medium,Yes,Yes,No,No,Yes
0.025,0.55,None,Yes,Medium,High,Male,No,High,Yes,No,No,Yes,Yes
0.0375,0.783333,None,No,High,Low,Female,No,Medium,Yes,Yes,Yes,No,Yes
0.9375,0.333333,None,Yes,Medium,Medium,Female,Yes,High,No,Yes,Yes,No,Yes
0.0375,0.566667,Medium,Yes,Medium,Medium,Female,Yes,High,No,No,No,Yes,Yes
0.925,0.95,Medium,No,Low,Low,Female,Yes,Medium,No,No,Yes,Yes,Yes
0.65,0,High,No,Medium,Low,Male,No,Low,Yes,Yes,No,No,Yes
0.625,0.633333,None,Yes,Low,High,Female,No,High,No,Yes,No,No,Yes
0.125,0.6,High,No,High,High,Female,Yes,Medium,No,Yes,No,No,Yes
0.5,0.866667,High,No,Low,High,Female,No,Medium,No,Yes,Yes,Yes,Yes
0.475,0.016667,Medium,No,Low,High,Male,No,Low,Yes,No,No,No,Yes
0.05,0.2,Medium,No,Medium,High,Female,No,High,Yes,Yes,Yes,Yes,Yes
0.4875,0.116667,Low,No,High,Medium,Male,Yes,High,Yes,No,No,Yes,Yes
0.2,0.133333,None,Yes,Medium,Low,Male,No,Low,Yes,Yes,Yes,Yes,Yes
0.775,0.816667,Medium,No,Low,High,Female,No,Medium,Yes,Yes,No,No,Yes
0.45,1,Medium,Yes,High,Low,Male,Yes,Low,Yes,No,Yes,No,Yes
0.925,0.95,Medium,No,Low,Low,Female,Yes,Medium,No,No,Yes,Yes,Yes
0.725,0.116667,Medium,Yes,Low,Medium,Female,Yes,High,Yes,Yes,No,No,Yes
0.6,0.85,Medium,No,High,Low,Female,Yes,Low,No,No,Yes,Yes,Yes
0.0125,0.883333,Medium,Yes,Low,High,Male,No,Medium,Yes,Yes,No,Yes,Yes
0.1375,0.366667,None,No,High,High,Male,No,High,Yes,No,No,No,Yes
0.9375,0.783333,None,No,Low,High,Female,No,Low,No,Yes,Yes,No,Yes
0.7875,0.05,None,Yes,Low,Low,Male,Yes,High,Yes,Yes,No,No,Yes
0.5125,0.85,Low,No,Low,Low,Female,Yes,High,Yes,No,No,No,Yes
0.025,0.666667,None,No,High,Medium,Female,No,High,No,Yes,No,Yes,Yes
0.675,0,None,Yes,Medium,Medium,Male,Yes,Medium,No,Yes,No,No,Yes
0.95,0.516667,Low,No,Low,Low,Female,Yes,High,Yes,Yes,Yes,No,Yes
0.6,0.45,High,No,Medium,Medium,Male,Yes,Low,No,Yes,No,No,Yes
0.175,0.933333,High,Yes,Low,Medium,Female,No,Low,No,No,Yes,No,Yes
0.1375,0.9,None,Yes,Medium,Low,Female,Yes,Medium,No,No,No,No,Yes
0.3625,0.116667,None,Yes,High,High,Male,No,High,Yes,Yes,No,Yes,Yes
0.75,0.083333,High,Yes,High,High,Female,Yes,High,Yes,No,Yes,No,Yes
0.725,0.033333,Medium,No,High,High,Male,No,High,No,No,Yes,Yes,Yes
0.3375,0.7,High,No,Medium,High,Male,No,High,Yes,Yes,Yes,Yes,Yes
0.275,0.616667,High,Yes,Low,Medium,Male,No,Medium,Yes,No,Yes,No,Yes
0,0.033333,None,No,Medium,High,Female,No,Medium,Yes,Yes,Yes,Yes,Yes
0.3,0.616667,High,No,Low,Low,Female,Yes,High,Yes,Yes,Yes,No,Yes
0.9375,0.166667,Low,No,High,High,Male,No,High,Yes,Yes,Yes,No,Yes
0.2375,0.3,High,No,Medium,Medium,Male,Yes,High,No,No,No,No,Yes
0.3,0.066667,None,Yes,Low,High,Male,No,High,Yes,No,No,No,Yes
0.5125,0.333333,Medium,Yes,High,Low,Male,Yes,Medium,No,No,Yes,No,Yes
0.1125,0.25,None,Yes,Low,Medium,Male,Yes,Medium,No,No,No,Yes,Yes
0.15,0.366667,Low,Yes,Medium,High,Female,No,Low,No,No,No,Yes,Yes
0.5625,0,Medium,Yes,Low,Low,Male,No,Medium,Yes,No,No,No,Yes
0.4375,0.183333,High,Yes,Medium,Low,Male,Yes,Medium,No,Yes,No,No,Yes
0.925,0.766667,None,No,Medium,Low,Female,No,Low,Yes,No,Yes,No,Yes
0.4,0.383333,None,No,Low,High,Male,No,Low,Yes,Yes,Yes,No,Yes
0.0125,1,Medium,No,High,Low,Female,Yes,Low,No,Yes,No,No,Yes
0.875,0.133333,Medium,No,Medium,Medium,Female,Yes,Low,No,No,No,Yes,Yes
0.4,0.4,Low,Yes,High,High,Female,No,Medium,Yes,Yes,No,No,Yes
0.3375,0.583333,Medium,No,High,Low,Male,Yes,High,No,Yes,No,Yes,Yes
0.5625,0.7,Medium,Yes,Medium,High,Male,Yes,High,Yes,No,Yes,No,Yes
1,0.133333,Low,Yes,High,Low,Female,Yes,Low,Yes,No,Yes,No,Yes
0.0125,0.183333,High,No,Medium,Low,Male,No,High,Yes,Yes,No,No,Yes
0.1875,0.7,Medium,No,Low,Low,Male,Yes,High,Yes,Yes,Yes,No,Yes
0.3875,0.383333,Medium,No,High,High,Female,No,High,No,No,No,No,Yes
0.525,0.3,None,No,High,Medium,Female,No,Low,No,No,Yes,Yes,Yes
0.0125,0.233333,High,No,Medium,Low,Female,No,High,Yes,Yes,No,No,Yes
0.925,0.116667,Low,Yes,Low,Low,Male,No,High,No,No,Yes,Yes,Yes
0.5,0.133333,Low,No,Low,High,Female,Yes,Medium,Yes,Yes,Yes,Yes,Yes
0.0625,0.65,None,No,Medium,Low,Female,No,Low,Yes,No,No,No,Yes
0.975,0.7,Low,No,High,Low,Female,No,Medium,No,Yes,No,Yes,Yes
0.25,0.4,None,Yes,Low,Low,Female,No,Low,No,No,No,Yes,Yes
0.525,0.15,High,Yes,Low,Low,Male,Yes,Medium,Yes,Yes,No,Yes,Yes
0.1875,0.466667,None,No,Low,High,Male,Yes,Medium,No,Yes,No,Yes,Yes
0.1625,0.8,Low,No,Low,Medium,Male,No,Low,Yes,No,Yes,Yes,Yes
0.8125,0.083333,None,No,High,Low,Male,Yes,Medium,No,No,No,Yes,Yes
0.6375,0.9,High,No,High,High,Male,Yes,High,No,Yes,No,No,Yes
0.9,0.85,High,Yes,High,Medium,Male,Yes,Medium,Yes,Yes,Yes,Yes,Yes
0.5125,0.266667,Medium,Yes,Low,Medium,Male,No,Medium,Yes,No,Yes,No,Yes
0.7125,0.616667,Low,Yes,Medium,Low,Female,No,High,Yes,No,Yes,No,Yes
0.7,0.266667,None,No,High,High,Male,Yes,Medium,No,No,No,No,Yes
0.1,0.516667,Low,No,High,Low,Female,Yes,Medium,No,No,Yes,Yes,Yes
0.4625,0.9,Medium,Yes,High,High,Female,No,Medium,No,Yes,No,No,Yes
0.625,0.866667,Medium,No,Medium,High,Female,Yes,Low,No,No,Yes,Yes,Yes
0.9125,0.583333,Medium,No,High,High,Female,No,High,No,No,No,Yes,Yes
0.5625,0.133333,Low,No,High,High,Male,No,Low,No,No,No,Yes,Yes
0.2375,0.183333,Low,No,High,Low,Male,Yes,Medium,Yes,Yes,Yes,No,Yes
0.575,0.733333,Medium,Yes,Low,Medium,Female,No,High,Yes,Yes,No,Yes,Yes
0.8625,0.7,None,Yes,High,High,Female,Yes,High,Yes,No,No,Yes,Yes
0.2375,0.166667,None,No,Low,Low,Female,Yes,Medium,No,No,No,No,Yes
0.675,0.933333,Medium,Yes,Low,Medium,Male,No,Low,No,Yes,Yes,No,Yes
0.825,0.495962,High,Yes,High,Low,Female,No,Medium,Yes,Yes,No,No,Yes
0.1,0.2,High,Yes,High,Low,Male,No,High,Yes,No,Yes,Yes,Yes
0.8875,0.533333,Medium,Yes,Medium,Low,Male,No,Medium,No,No,No,No,Yes
0.3875,0.05,Medium,Yes,Low,Medium,Female,Yes,Medium,Yes,Yes,Yes,Yes,Yes
0.475,0.366667,Low,No,Low,Medium,Female,Yes,Low,No,Yes,No,No,Yes
0.3125,0.933333,None,No,Low,High,Male,Yes,Low,Yes,Yes,Yes,No,Yes
0.75,0.383333,Medium,No,High,Medium,Female,Yes,Medium,No,No,No,Yes,Yes
0.9,0.933333,High,No,Medium,Medium,Female,Yes,High,No,No,No,No,Yes
0.7625,0.466667,High,No,High,High,Male,No,Medium,No,Yes,No,Yes,Yes
0.7,0.1,None,Yes,Medium,Low,Female,No,High,Yes,Yes,No,Yes,Yes
0.075,0.416667,Low,No,Low,High,Male,Yes,High,Yes,No,No,No,Yes
0.2625,0.383333,None,No,Low,Medium,Female,No,Medium,Yes,No,Yes,No,Yes
0.9875,0.766667,Low,No,Low,High,Female,Yes,Medium,Yes,No,Yes,Yes,Yes
0.45,0.5,High,Yes,Medium,High,Male,No,Medium,No,Yes,No,Yes,Yes
0.7125,0.616667,Low,Yes,Medium,Low,Female,No,High,Yes,No,Yes,No,Yes
0.2375,0.85,High,No,Medium,Low,Male,Yes,Medium,No,Yes,Yes,No,Yes
0.3875,0.05,Medium,Yes,Low,Medium,Female,Yes,Medium,Yes,Yes,Yes,Yes,Yes
0.05,0.816667,Medium,Yes,High,Medium,Female,Yes,Medium,No,No,No,No,Yes
0.075,0.416667,Low,No,Low,High,Male,Yes,High,Yes,No,No,No,Yes
0.8875,0.816667,None,Yes,High,Low,Male,No,Low,Yes,Yes,Yes,No,Yes
0.6,0.85,Medium,No,High,Low,Female,Yes,Low,No,No,Yes,Yes,Yes
0.625,0.666667,Medium,No,Low,Medium,Female,Yes,High,Yes,Yes,Yes,No,Yes
0.275,0.566667,None,No,Low,Medium,Female,No,High,No,No,Yes,No,Yes
0.875,0.2,High,Yes,Low,High,Male,No,High,No,Yes,No,No,Yes
0.975,0.85,High,Yes,Low,Medium,Female,No,Medium,No,No,Yes,No,Yes
0.9375,0.033333,Low,No,Low,Low,Female,No,High,Yes,Yes,Yes,No,Yes
0.1625,0.983333,High,Yes,Medium,Low,Female,No,Low,Yes,Yes,No,No,Yes
0.9625,0.2,High,Yes,Medium,High,Male,Yes,Low,Yes,No,No,Yes,Yes
0.7375,0.633333,None,No,Low,Low,Female,No,Medium,No,Yes,Yes,Yes,Yes
0.3,0.116667,Low,Yes,Low,High,Male,Yes,Medium,Yes,No,Yes,No,Yes
0.8375,0.466667,None,No,Low,Low,Male,No,Medium,Yes,No,Yes,Yes,Yes
0.575,0.083333,None,Yes,High,Low,Female,No,Medium,Yes,Yes,Yes,Yes,Yes
0.575,0.316667,None,Yes,High,Low,Female,Yes,Low,No,No,Yes,No,Yes
0.4125,0.783333,High,Yes,Medium,Medium,Male,No,Low,No,No,No,No,Yes
0.7375,0.016667,Low,Yes,Low,Medium,Female,Yes,Low,No,No,No,No,Yes
0.525,0.533333,Low,No,Medium,Medium,Male,Yes,Medium,No,Yes,No,No,Yes
0.0125,1,Medium,No,High,Low,Female,Yes,Low,No,Yes,No,No,Yes
0.775,0.133333,None,No,High,Low,Male,No,Low,No,No,Yes,Yes,Yes
0.675,0.9,Medium,Yes,Medium,Low,Female,Yes,Low,No,Yes,No,Yes,Yes
0.4375,0.9,None,Yes,Low,High,Female,Yes,Low,No,No,No,Yes,Yes
0.2,0.1,None,Yes,Medium,Medium,Male,Yes,Low,Yes,Yes,No,Yes,Yes
0.725,0.1,None,No,Medium,Medium,Female,No,Low,No,Yes,No,Yes,Yes
0.3625,0.566667,High,Yes,Medium,Medium,Male,No,Low,No,No,No,No,Yes
0.4875,0.466667,Medium,Yes,Medium,Medium,Female,Yes,Low,Yes,Yes,Yes,No,Yes
0.025,0.033333,High,Yes,High,High,Female,No,Medium,Yes,Yes,No,No,Yes
0.6375,0.566667,Medium,No,Medium,Low,Female,No,Low,No,No,Yes,No,Yes
0.3375,0.716667,Low,No,High,High,Female,Yes,Medium,No,Yes,Yes,No,Yes
0.525,0.733333,Medium,No,Medium,High,Female,No,Low,No,No,Yes,Yes,Yes
0.175,0.383333,Medium,Yes,High,High,Female,No,Low,No,Yes,Yes,No,Yes
0.2375,0.7,High,No,High,Medium,Male,Yes,Medium,Yes,No,No,Yes,Yes
0.9,0.883333,High,No,Medium,Medium,Male,No,Medium,Yes,No,No,No,Yes
0.0125,0.383333,Medium,No,Low,Medium,Female,Yes,Low,No,No,Yes,No,Yes
0.9875,0.066667,High,Yes,Medium,High,Male,Yes,Low,No,Yes,No,No,Yes
0.35,0.5,High,No,Medium,Medium,Male,Yes,Medium,Yes,Yes,Yes,No,Yes
0.8875,0.983333,High,Yes,High,Low,Female,No,High,No,Yes,Yes,No,Yes
0.15,0.333333,High,No,Low,High,Female,No,High,Yes,Yes,Yes,Yes,Yes
0.8875,0.55,Low,No,Medium,High,Female,No,Medium,No,Yes,Yes,No,Yes
0,0.7,High,No,High,High,Male,Yes,Medium,No,Yes,Yes,No,Yes
0.7125,0.483333,Medium,Yes,Medium,Low,Female,Yes,High,Yes,Yes,No,No,Yes
0.85,0.116667,Low,Yes,High,Medium,Male,No,Low,No,Yes,No,No,Yes
0.1625,0.8,Low,No,Low,Medium,Male,No,Low,Yes,No,Yes,Yes,Yes
0.025,0.866667,Low,Yes,Low,Medium,Male,Yes,High,Yes,Yes,No,No,Yes
0.8125,0.733333,None,Yes,High,Low,Female,Yes,High,No,Yes,No,No,Yes
0.775,0.55,High,No,Low,High,Female,No,High,Yes,No,Yes,No,Yes
0.125,0.05,High,No,Low,Medium,Male,Yes,High,No,Yes,Yes,No,Yes
0.3125,0.1,High,Yes,Medium,High,Male,No,Low,No,No,Yes,No,Yes
0.85,0.666667,None,Yes,Medium,Medium,Female,No,High,Yes,No,Yes,No,Yes
0.8875,0.816667,None,Yes,High,Low,Male,No,Low,Yes,Yes,Yes,No,Yes
0.325,0.083333,High,Yes,Medium,Low,Female,No,Low,No,Yes,No,No,Yes
0.175,0.833333,Medium,Yes,High,Medium,Male,Yes,Medium,No,Yes,No,No,Yes
0.1,0.683333,Medium,Yes,Low,High,Female,Yes,High,No,No,No,No,Yes
0.05,0.216667,Low,No,Low,High,Female,No,Medium,Yes,Yes,Yes,Yes,Yes
0.975,1,Medium,Yes,Medium,Low,Male,Yes,Low,No,No,Yes,No,Yes
0.1625,0.083333,Low,Yes,Low,High,Female,Yes,High,Yes,No,No,No,Yes
0.4875,0.216667,Low,No,Low,High,Male,Yes,High,No,Yes,No,Yes,Yes
0.0125,1,Medium,Yes,Medium,Low,Male,Yes,Medium,No,Yes,Yes,Yes,Yes
0.475,0.766667,Medium,No,High,Low,Male,No,Medium,Yes,Yes,Yes,Yes,Yes
0.95,1,Medium,No,Medium,Low,Female,Yes,Medium,No,Yes,Yes,Yes,Yes
0.6125,1,Low,Yes,Medium,Medium,Female,No,High,Yes,No,Yes,No,Yes
0.3375,0.983333,Medium,Yes,Medium,Medium,Male,Yes,High,Yes,No,No,Yes,Yes
0.1875,0.183333,High,No,Medium,High,Male,No,High,Yes,Yes,Yes,Yes,Yes
0.6875,0.6,Medium,Yes,Medium,Low,Male,Yes,High,Yes,Yes,No,No,Yes
0.7625,0.466667,High,No,High,High,Male,No,Medium,No,Yes,No,Yes,Yes
0.3125,0.783333,High,Yes,High,Low,Female,Yes,High,Yes,No,Yes,Yes,Yes
0.1125,0.016667,High,Yes,High,Medium,Male,No,Low,Yes,No,Yes,No,Yes
0.475,0.766667,Medium,No,High,Low,Male,No,Medium,Yes,No,No,Yes,Yes
0.3375,0.666667,Medium,No,Medium,High,Male,Yes,Medium,Yes,Yes,No,Yes,Yes
0.4375,0.283333,High,No,Low,Low,Male,No,Low,Yes,Yes,No,Yes,Yes
0.45,0.533333,High,No,Medium,High,Female,No,Medium,Yes,Yes,No,No,Yes
0.0625,0.466667,None,Yes,Medium,High,Female,No,Medium,No,Yes,No,Yes,Yes
0.075,0.583333,Low,No,High,Low,Female,No,High,Yes,Yes,Yes,Yes,Yes
0.7875,0.333333,High,Yes,Low,Low,Male,No,Medium,No,Yes,No,Yes,Yes
0.5125,0.516667,High,Yes,Low,Medium,Female,Yes,Medium,Yes,No,No,No,Yes
0.45,0.333333,None,Yes,Low,High,Female,Yes,Low,No,No,Yes,No,Yes
0.8,0.566667,Medium,Yes,High,Low,Female,Yes,High,No,Yes,No,No,Yes
0.825,0.8,High,No,Medium,Low,Female,Yes,High,Yes,No,No,Yes,Yes
0.4625,0.216667,Medium,No,High,Low,Male,No,Medium,No,Yes,Yes,Yes,Yes
0.9125,0.066667,Medium,No,High,Low,Female,No,Medium,Yes,No,Yes,Yes,Yes
0.225,0.566667,None,No,High,Low,Male,No,High,No,Yes,No,Yes,Yes
0.95,0.383333,Medium,Yes,High,Medium,Female,No,High,No,Yes,Yes,No,Yes
0.0625,0.2,None,No,Low,Medium,Male,No,Medium,No,Yes,Yes,No,Yes
0.0125,0.85,Medium,Yes,High,Low,Female,Yes,Low,No,No,Yes,Yes,Yes
0.2875,0.183333,None,Yes,Low,Medium,Female,Yes,Low,No,Yes,Yes,Yes,Yes
0.4625,0.366667,None,Yes,High,High,Female,Yes,Medium,Yes,Yes,No,Yes,Yes
0.1875,0.166667,None,Yes,High,High,Male,No,Medium,Yes,No,No,Yes,Yes
0.6,0,None,Yes,Low,Medium,Female,Yes,Medium,Yes,No,Yes,No,Yes
0.95,0.633333,Low,Yes,High,High,Male,No,Medium,No,Yes,Yes,No,Yes
0.75,0.516667,None,No,Low,Medium,Female,No,Low,No,Yes,Yes,No,Yes
0.1125,0.55,Low,Yes,High,Medium,Male,Yes,High,No,No,Yes,Yes,Yes
0.5,0.85,None,Yes,High,Low,Female,Yes,Low,Yes,No,Yes,Yes,Yes
0.1,0.4,None,No,High,Low,Male,No,Low,Yes,No,Yes,No,Yes
0.3375,0.716667,Low,No,High,High,Female,Yes,Medium,No,Yes,Yes,No,Yes
0.725,0.433333,Low,Yes,Low,High,Female,Yes,Low,Yes,Yes,No,No,Yes
0.8375,0.35,Medium,Yes,Low,High,Female,Yes,High,Yes,No,Yes,No,Yes
0.7125,0.316667,None,No,High,Low,Male,No,Medium,Yes,Yes,Yes,Yes,Yes
0.925,0.95,Medium,No,Low,Low,Female,Yes,Medium,No,No,Yes,Yes,Yes
0.3125,0.466667,None,No,Low,High,Male,No,High,No,No,No,No,Yes
0.4375,0.116667,High,No,High,Low,Male,Yes,Low,Yes,Yes,No,No,Yes
0.7875,1,None,Yes,High,High,Female,Yes,High,No,No,Yes,No,Yes
0.75,0.716667,None,Yes,Low,Medium,Male,No,Medium,No,Yes,No,Yes,Yes
0.3625,0.3,None,No,Low,High,Male,No,High,Yes,Yes,No,Yes,Yes
0.1375,0.983333,None,No,High,Medium,Female,Yes,High,No,No,No,No,Yes
0.3375,0.4,High,No,Medium,High,Female,Yes,Medium,Yes,Yes,No,No,Yes
0.1625,0.566667,Low,Yes,High,Low,Male,Yes,Low,Yes,No,Yes,Yes,Yes
0.8875,0.3,Low,No,High,High,Female,No,Low,Yes,Yes,No,Yes,Yes
0.2375,0.3,High,No,Medium,Medium,Male,Yes,High,No,No,No,No,Yes
0.0125,0.133333,None,Yes,Low,High,Female,No,Low,Yes,No,Yes,Yes,Yes
0.6625,0.3,None,No,Medium,Medium,Female,No,Medium,Yes,No,No,Yes,Yes
0.2375,0.7,High,No,High,Medium,Male,Yes,Medium,Yes,No,No,Yes,Yes
0.55,0.116667,Medium,Yes,Medium,High,Male,Yes,High,Yes,No,No,No,Yes
0.7625,0.116667,Medium,No,Medium,Low,Male,No,Low,No,Yes,No,No,Yes
0.8625,0.283333,None,Yes,Medium,High,Male,Yes,Low,Yes,No,Yes,Yes,Yes
0.7875,0.9,High,Yes,Medium,Low,Female,No,High,Yes,No,Yes,No,Yes
0.275,0.2,High,No,Low,Medium,Female,Yes,High,No,Yes,Yes,Yes,Yes
0.775,0.266667,Low,Yes,Medium,Medium,Male,No,High,Yes,No,Yes,No,Yes
0.2875,0,Medium,Yes,Low,Medium,Female,Yes,High,No,Yes,No,Yes,Yes
0.9375,0.9,High,Yes,Medium,Low,Male,No,High,No,Yes,No,No,Yes
0.775,0.25,Low,Yes,Low,High,Female,No,Low,No,No,No,No,Yes
0.8375,0.95,Medium,No,Low,High,Male,No,Low,Yes,No,No,No,Yes
0.9375,0.15,High,No,Low,High,Female,Yes,Medium,No,No,Yes,Yes,Yes
0.2875,0.3,Low,No,High,High,Female,Yes,High,No,No,Yes,No,Yes
0.8,0.616667,Low,Yes,High,High,Male,No,High,Yes,No,Yes,Yes,Yes
0.4,0.666667,Low,Yes,Low,High,Male,Yes,Low,Yes,Yes,Yes,Yes,Yes
0.125,0.233333,High,No,Medium,Medium,Female,No,High,No,No,Yes,No,Yes
0.1875,0.966667,Low,No,High,Medium,Female,No,Low,Yes,No,No,No,Yes
0.7125,0.616667,Low,Yes,Medium,Low,Female,No,High,Yes,No,Yes,No,Yes
0.9875,0.95,High,No,High,Medium,Female,No,High,Yes,Yes,No,Yes,Yes
0.35,0.916667,Low,No,Medium,High,Female,Yes,Low,No,No,Yes,Yes,Yes
0.8125,0.516667,None,Yes,Medium,Low,Female,No,Medium,No,Yes,Yes,No,Yes
0.25,0.4,None,Yes,Low,Low,Female,No,Low,No,No,No,Yes,Yes
0.9625,0.05,High,No,High,Low,Male,No,Medium,Yes,No,No,No,Yes
0.4875,0.15,Medium,No,Low,Low,Male,Yes,Medium,No,Yes,No,No,Yes
0.55,0.75,None,Yes,High,Low,Male,Yes,High,Yes,Yes,Yes,No,Yes
0.825,0.866667,Medium,No,Low,Medium,Male,Yes,High,No,No,No,Yes,Yes
0.375,0.1,High,No,Medium,High,Female,No,High,No,Yes,Yes,No,Yes
0.7625,0.783333,None,Yes,Medium,Medium,Female,No,High,Yes,Yes,Yes,No,Yes
0.2625,0.116667,Medium,Yes,High,Low,Male,Yes,Low,Yes,No,No,Yes,Yes
0.0375,0.783333,None,No,High,Low,Female,No,Medium,Yes,Yes,Yes,No,Yes
0.025,0.6,Low,No,High,High,Female,Yes,Low,No,No,No,Yes,Yes
0.8375,0.133333,Medium,Yes,High,Medium,Male,Yes,High,Yes,No,No,No,Yes
0.6625,0.516667,None,No,Medium,Low,Female,No,High,Yes,Yes,Yes,Yes,Yes
0.7625,0.633333,Low,No,Low,Medium,Female,Yes,Low,Yes,No,No,No,Yes
0.1125,0.066667,None,Yes,Low,High,Male,Yes,Medium,Yes,No,Yes,No,Yes
0.325,0.25,Medium,Yes,Low,Medium,Female,No,High,No,No,Yes,Yes,Yes
0.925,0.483333,None,No,Low,High,Male,No,High,No,No,Yes,Yes,Yes
0.175,0.866667,High,No,High,High,Male,Yes,Medium,Yes,No,Yes,Yes,Yes
0.825,0.166667,High,No,High,Medium,Male,No,Low,Yes,No,No,Yes,Yes
0.7,0.05,None,Yes,High,Medium,Female,No,Medium,No,No,Yes,No,Yes
0.2875,0.683333,None,No,High,High,Male,No,Low,Yes,No,No,Yes,Yes
0.725,0.366667,None,Yes,High,High,Female,Yes,High,No,No,No,Yes,Yes
0.675,0.283333,Low,No,High,High,Male,No,Medium,No,No,Yes,No,Yes
0.4125,0.5,High,Yes,Medium,Low,Male,Yes,Medium,Yes,No,No,Yes,Yes
0.775,0.266667,Low,Yes,Medium,Medium,Male,No,High,Yes,No,Yes,No,Yes
0.175,0.383333,Medium,Yes,High,High,Female,No,Low,No,Yes,Yes,No,Yes
0.175,0.733333,None,Yes,Medium,Medium,Male,No,High,Yes,No,Yes,Yes,Yes
0.3,0.066667,Low,No,Medium,High,Female,No,Low,No,No,Yes,Yes,Yes
0.05,0.25,Medium,No,High,High,Female,No,High,Yes,No,Yes,No,Yes
0.9375,0.016667,Low,No,Medium,Medium,Male,Yes,Medium,No,Yes,No,No,Yes
0.9125,0.166667,Low,No,Medium,High,Male,Yes,High,No,Yes,No,No,Yes
0.25,0.383333,Low,Yes,Low,Low,Male,Yes,Low,Yes,Yes,No,Yes,Yes
0.3125,0.233333,Medium,No,High,High,Female,Yes,High,No,No,No,No,Yes
0.7,0.7,Low,No,Medium,High,Male,No,Low,Yes,Yes,Yes,No,Yes
0.7125,0.483333,Medium,Yes,Medium,Low,Female,Yes,High,Yes,Yes,No,No,Yes
0.05,0.816667,High,Yes,Low,Medium,Female,Yes,Medium,Yes,No,Yes,No,Yes
0.3625,0.316667,High,Yes,Medium,Low,Female,No,High,Yes,Yes,No,Yes,Yes
0.6625,0.466667,None,Yes,Low,Medium,Female,No,Medium,Yes,Yes,Yes,No,Yes
0.05,1,High,Yes,Low,Low,Female,Yes,Medium,Yes,No,No,No,Yes
0.2625,0.616667,Low,Yes,Medium,Medium,Female,Yes,High,Yes,Yes,Yes,No,Yes
0,0.666667,Low,Yes,Medium,High,Male,Yes,Low,No,No,Yes,No,Yes
0.35,0.35,High,No,Low,Medium,Female,No,Medium,No,Yes,Yes,No,Yes
0.3875,0.05,Medium,Yes,Low,Medium,Female,Yes,Medium,Yes,Yes,Yes,Yes,Yes
0.7375,0.666667,Medium,Yes,High,Low,Female,No,Medium,No,No,No,Yes,Yes
0.6625,0.55,Medium,Yes,High,Low,Female,Yes,Low,Yes,No,Yes,No,Yes
0.0375,0.55,Medium,No,Low,Medium,Female,Yes,Low,No,No,Yes,No,Yes
0.75,0.766667,Low,No,Medium,Low,Female,No,High,No,No,Yes,No,Yes
0.2375,0.316667,Low,Yes,Low,Low,Female,No,High,No,No,No,No,Yes
0.3875,0.366667,Low,No,Medium,Low,Male,Yes,Low,Yes,Yes,Yes,No,Yes
0,0.283333,Low,No,High,Medium,Male,No,Low,No,Yes,Yes,Yes,Yes
0.4375,0.633333,High,No,Medium,Medium,Male,No,High,No,Yes,Yes,Yes,Yes
0.8125,0.4,None,Yes,High,High,Male,Yes,Medium,Yes,Yes,Yes,No,Yes
0.25,0.983333,Low,No,High,Low,Male,No,Medium,Yes,No,Yes,Yes,Yes
0.8375,0.083333,High,Yes,Medium,Low,Male,Yes,Low,Yes,No,Yes,Yes,Yes
0.8125,0.05,High,Yes,High,High,Female,No,High,No,Yes,Yes,Yes,Yes
0.475,0.466667,Medium,No,High,Low,Male,Yes,High,No,Yes,No,Yes,Yes
0.975,0.433333,Medium,Yes,Low,Medium,Female,No,Low,No,Yes,Yes,No,Yes
0.8875,0.966667,None,No,Low,Low,Female,No,Low,Yes,Yes,Yes,Yes,Yes
0.2375,0.166667,None,No,Low,Low,Female,Yes,Medium,No,No,No,No,Yes
0.4125,0.866667,None,No,Medium,Low,Male,Yes,Medium,No,Yes,No,Yes,Yes
0.8375,0.7,Medium,No,Low,High,Female,No,Medium,No,Yes,Yes,Yes,Yes
0.4125,0.783333,High,Yes,Medium,Medium,Male,No,Low,No,No,No,No,Yes
0.9625,0.683333,High,No,Low,Medium,Male,No,High,No,Yes,Yes,Yes,Yes
0.8625,0.766667,None,Yes,High,High,Male,No,Low,No,Yes,No,No,Yes
0.775,0.383333,High,No,Medium,High,Male,Yes,High,No,No,No,No,Yes
0.6,0.483333,Low,No,Low,Medium,Male,Yes,Low,No,No,No,No,Yes
0.425,0.533333,Medium,Yes,Low,Medium,Female,Yes,Medium,Yes,No,No,No,Yes
0.501778,0.733333,Low,Yes,Low,Medium,Male,No,Low,No,No,Yes,Yes,Yes
0.475,0.066667,High,Yes,High,Medium,Male,Yes,Medium,No,Yes,Yes,Yes,Yes
0.05,0.033333,High,No,High,Low,Female,No,Medium,No,Yes,Yes,No,Yes
0.1875,0.2,Medium,Yes,Medium,High,Female,No,High,No,Yes,Yes,Yes,Yes
0.375,0.733333,Low,No,Medium,High,Female,Yes,Low,Yes,Yes,No,No,Yes
0.525,0.766667,High,Yes,Medium,High,Male,Yes,Medium,No,Yes,Yes,Yes,Yes
0.025,0.233333,None,No,Medium,Medium,Female,No,High,No,No,No,No,Yes
0.125,0.916667,Medium,No,Low,High,Female,No,Low,No,Yes,No,Yes,Yes
0.525,0.55,Low,No,Low,Low,Male,Yes,High,Yes,No,Yes,No,Yes
0.25,1,Medium,No,High,High,Female,No,Medium,No,Yes,Yes,No,Yes
0.8875,0.3,Low,Yes,Medium,Medium,Female,Yes,High,No,No,No,No,Yes
0.575,0.9,Medium,Yes,Medium,High,Male,No,Low,No,Yes,Yes,No,Yes
0.8125,0.783333,Medium,Yes,Medium,Low,Female,Yes,Medium,Yes,No,No,Yes,Yes
0.75,0.583333,Low,No,High,Medium,Male,No,Medium,No,Yes,Yes,No,Yes
0.075,0.933333,Low,Yes,Low,Low,Male,No,High,No,No,Yes,Yes,Yes
0.501778,0.733333,Low,Yes,Low,Medium,Male,No,Low,No,No,Yes,Yes,Yes
0.325,0.183333,None,Yes,Medium,Low,Male,No,Medium,Yes,No,No,No,Yes
0.6,0.45,Low,Yes,Medium,Medium,Female,Yes,Low,Yes,Yes,No,No,Yes
0.4625,0.883333,High,No,Medium,Medium,Female,Yes,Medium,Yes,Yes,Yes,Yes,Yes
0.125,0.2,None,No,Medium,High,Female,No,Low,Yes,Yes,Yes,No,Yes
0.7875,0,High,No,High,High,Female,No,High,No,Yes,No,Yes,Yes
0.575,0.216667,Medium,Yes,High,High,Female,Yes,Medium,Yes,Yes,Yes,Yes,Yes
0.4875,0.766667,Medium,Yes,Medium,High,Male,No,Low,No,Yes,No,No,Yes
0.8375,0.833333,None,No,Low,Low,Female,No,Medium,No,Yes,Yes,No,Yes
0.3375,0.4,High,No,Medium,High,Female,Yes,Medium,Yes,Yes,No,No,Yes
0.325,0.7,Low,Yes,Low,Medium,Male,No,Low,No,No,Yes,No,Yes
0.275,0.033333,High,Yes,Medium,Medium,Male,Yes,Low,No,No,Yes,No,Yes
0.625,0.566667,None,No,Medium,Low,Female,No,High,Yes,Yes,No,Yes,Yes
0.5125,0.633333,High,No,High,Medium,Female,No,High,Yes,Yes,No,Yes,Yes
0.075,0,High,Yes,Low,High,Female,No,High,No,Yes,No,No,Yes
0.3,0.7,Low,Yes,Medium,Medium,Female,Yes,High,No,Yes,Yes,No,Yes
0.7375,0.933333,Low,Yes,Medium,Low,Male,No,Low,No,No,No,No,Yes
0.075,0.933333,Low,Yes,Low,Low,Male,No,High,No,No,Yes,Yes,Yes
0.8875,0.983333,High,Yes,High,Low,Female,No,High,No,Yes,Yes,No,Yes
0.575,0.316667,Medium,Yes,Low,Low,Male,No,Medium,Yes,No,No,Yes,Yes
0.4,0.4,Low,Yes,High,High,Female,No,Medium,Yes,Yes,No,No,Yes
0.4375,0.183333,High,Yes,Medium,Low,Male,Yes,Medium,No,Yes,No,No,Yes
0.1625,0.483333,Medium,Yes,Low,Medium,Female,Yes,Medium,Yes,Yes,No,Yes,Yes
0.7625,0.116667,High,Yes,High,Medium,Male,No,Medium,Yes,No,Yes,Yes,Yes
0.8375,0.833333,None,No,Low,Low,Female,No,Medium,No,Yes,Yes,No,Yes
0.4,0.316667,High,Yes,Low,High,Female,Yes,High,Yes,Yes,Yes,No,Yes
0.4,0.766667,High,No,Low,Medium,Male,No,High,No,No,Yes,No,Yes
0.1375,0.316667,None,Yes,High,High,Female,Yes,High,Yes,Yes,No,No,Yes
0.9875,0.55,None,Yes,Medium,High,Female,Yes,High,No,No,Yes,Yes,Yes
0.85,0.9,Low,No,High,Low,Male,No,Medium,No,No,No,Yes,Yes
0.3875,0.983333,Low,Yes,Medium,High,Male,No,High,No,No,No,No,Yes
0.7125,0.933333,Low,Yes,High,High,Male,Yes,Medium,No,Yes,No,No,Yes
0.2625,0.65,Medium,No,Low,Medium,Female,No,High,No,No,Yes,No,Yes
0.8375,0.7,Medium,No,Low,High,Female,No,Medium,No,Yes,Yes,Yes,Yes
0.6375,0,High,No,Medium,High,Female,Yes,Low,Yes,Yes,Yes,Yes,Yes
0.5625,0.383333,Low,Yes,High,Low,Male,No,Low,No,No,No,Yes,Yes
0.4875,0.35,None,Yes,High,Low,Female,Yes,Medium,No,Yes,Yes,No,Yes
0.4375,0.183333,High,Yes,Medium,Low,Male,Yes,Medium,No,Yes,No,No,Yes
0.5625,0.683333,High,Yes,Low,Low,Female,No,High,No,No,Yes,Yes,Yes
0.9,0.116667,Medium,No,High,High,Male,No,Low,No,Yes,No,No,Yes
0.625,0.2,Medium,Yes,Medium,Medium,Male,Yes,Low,No,Yes,Yes,Yes,Yes
0.3625,0.35,Low,Yes,Medium,High,Male,Yes,Low,No,Yes,No,No,Yes
0.1,0.4,High,No,Low,Medium,Female,Yes,High,Yes,No,Yes,Yes,Yes
0.8875,0.033333,High,No,Medium,Low,Male,Yes,Low,Yes,No,Yes,Yes,Yes
0.125,0,Low,Yes,High,Medium,Male,No,Low,Yes,No,No,No,Yes
0.3875,0.616667,Low,No,Medium,Medium,Male,No,High,No,Yes,No,No,Yes
0.9875,0.433333,High,Yes,Medium,High,Male,No,High,Yes,No,Yes,Yes,Yes
0.2,0.333333,High,Yes,Medium,High,Male,Yes,Medium,Yes,No,No,No,Yes
0.5125,0.883333,Low,No,High,Low,Male,No,High,Yes,Yes,No,Yes,Yes
0.3375,0.25,High,Yes,Low,High,Female,No,Low,No,No,Yes,Yes,Yes
0.625,0.966667,None,Yes,Medium,High,Male,Yes,High,No,Yes,No,No,Yes
0.925,0.983333,High,Yes,Low,Low,Female,No,Low,No,No,Yes,Yes,Yes
0.85,0.55,High,No,Medium,High,Male,Yes,High,No,Yes,Yes,No,Yes
0.25,0.833333,Low,Yes,Low,High,Male,No,Low,Yes,Yes,Yes,Yes,Yes
0.175,0.083333,High,Yes,Low,Medium,Male,No,Low,Yes,No,No,Yes,Yes
0.1125,0.15,Low,No,High,Low,Male,Yes,Low,Yes,Yes,No,No,Yes
0.45,0.116667,Medium,No,Medium,Low,Male,Yes,Low,No,No,No,No,Yes
0.675,0.916667,Medium,No,Medium,High,Male,Yes,Low,Yes,Yes,Yes,Yes,Yes
0.1625,0.6,None,No,Low,High,Female,Yes,Medium,No,Yes,Yes,No,Yes
0.4125,0.6,Low,No,Medium,High,Male,Yes,Medium,Yes,Yes,Yes,No,Yes
0.7875,0.333333,High,Yes,Low,Low,Male,No,Medium,No,Yes,No,Yes,Yes
0.8875,0.55,Low,No,Medium,High,Female,No,Medium,No,Yes,Yes,No,Yes
0.45,0.05,High,No,Low,High,Female,Yes,Low,Yes,No,Yes,No,Yes
0.15,0.333333,High,No,Low,High,Female,No,High,Yes,Yes,Yes,Yes,Yes
0.5125,0.333333,Medium,Yes,High,Low,Male,Yes,Medium,No,No,Yes,No,Yes
0.7625,0.633333,Low,No,Low,Medium,Female,Yes,Low,Yes,No,No,No,Yes
0.5125,0.266667,High,Yes,High,High,Male,No,High,Yes,No,No,Yes,Yes
0.4625,0.216667,Medium,No,High,Low,Male,No,Medium,No,Yes,Yes,Yes,Yes
0.925,0.65,Medium,Yes,Low,High,Female,Yes,Low,No,No,Yes,No,Yes
0,0.066667,High,No,Low,Medium,Female,No,High,Yes,Yes,Yes,Yes,Yes
0.1,0.4,High,No,Low,Medium,Female,Yes,High,Yes,No,Yes,Yes,Yes
0.4375,0.316667,Low,Yes,Medium,Low,Female,No,Medium,Yes,No,Yes,Yes,Yes
0.3125,0.466667,None,No,Low,High,Male,No,High,No,No,No,No,Yes
0.2875,0.183333,None,Yes,Low,Medium,Female,Yes,Low,No,Yes,Yes,Yes,Yes
0.3,0.283333,Medium,No,Medium,Low,Male,No,Low,Yes,No,No,Yes,Yes
0.7625,0.616667,Medium,No,High,High,Female,Yes,Medium,No,Yes,No,Yes,Yes
0.775,0.233333,None,Yes,Medium,Low,Female,Yes,Medium,No,Yes,No,Yes,Yes
0.4125,0.15,Medium,No,High,Low,Female,No,Medium,No,No,No,No,Yes
0.25,0.766667,High,Yes,Medium,High,Male,Yes,Medium,Yes,No,Yes,No,Yes
0.8625,0.85,High,Yes,High,Medium,Male,Yes,High,Yes,No,No,No,Yes
0.775,0.066667,Low,No,Low,Low,Female,Yes,Low,No,No,Yes,No,Yes
0.0375,0.416667,Medium,Yes,High,High,Female,Yes,Medium,Yes,Yes,Yes,No,Yes
0.2375,0.25,None,Yes,Low,Medium,Female,Yes,High,Yes,Yes,No,Yes,Yes
0.675,0.183333,Medium,Yes,Low,High,Male,Yes,Medium,Yes,No,Yes,Yes,Yes
0.575,0.383333,High,No,Medium,Medium,Male,Yes,Medium,No,No,Yes,Yes,Yes
0.1125,0.25,None,Yes,Low,Medium,Male,Yes,Medium,No,No,No,Yes,Yes
0.4375,0.183333,Medium,Yes,Medium,Low,Female,Yes,Low,No,No,Yes,No,Yes
0.1,0.9,None,Yes,Low,Medium,Male,No,Medium,Yes,No,Yes,No,Yes
0.025,0.583333,None,No,Low,Low,Female,No,Low,No,No,No,Yes,Yes
0.6375,0.366667,Medium,Yes,Low,Low,Male,No,Low,Yes,Yes,Yes,No,Yes
0.1625,0.6,None,No,Low,High,Female,Yes,Medium,No,Yes,Yes,No,Yes
0.25,0.216667,High,Yes,Low,Low,Male,Yes,Low,No,No,No,Yes,Yes
0.2375,0.05,Medium,Yes,High,Medium,Male,No,Medium,Yes,No,Yes,Yes,Yes
0.125,0.133333,Medium,No,Low,High,Female,Yes,High,No,No,Yes,Yes,Yes
0.125,0.333333,Low,Yes,Low,Medium,Female,No,High,Yes,No,No,Yes,Yes
0.1125,0.183333,Low,Yes,High,Low,Female,No,High,Yes,No,Yes,No,Yes
0.275,0.933333,Low,Yes,Low,Low,Male,No,High,No,Yes,Yes,Yes,Yes
0.8875,0.466667,None,Yes,High,High,Male,Yes,High,No,Yes,Yes,Yes,Yes
0.7125,0.1,Medium,Yes,Low,Medium,Male,No,High,Yes,No,Yes,Yes,Yes
0.05,0.983333,High,Yes,Low,Medium,Female,Yes,Low,No,No,No,No,Yes
0.2625,0.766667,Medium,Yes,High,High,Male,Yes,Low,No,Yes,No,Yes,Yes
0.1875,0.5,Low,No,Medium,High,Female,Yes,High,No,No,No,Yes,Yes
0.125,0.133333,Medium,Yes,Medium,Medium,Male,Yes,High,Yes,No,Yes,No,Yes
0.475,0.016667,Medium,No,Low,High,Male,No,Low,Yes,No,No,No,Yes
0.6125,0.495962,Low,No,Medium,Medium,Female,No,Medium,No,Yes,No,Yes,Yes
0.575,0.316667,None,Yes,High,Low,Female,Yes,Low,No,No,Yes,No,Yes
0.25,0.333333,Medium,No,Low,Low,Female,Yes,High,No,Yes,No,Yes,Yes
0.1625,0,None,No,Low,Low,Male,Yes,Low,No,No,No,Yes,Yes
0.775,0.25,Low,Yes,Low,High,Female,No,Low,No,No,No,No,Yes
0.175,0.133333,Medium,No,Medium,High,Male,Yes,Low,Yes,Yes,Yes,No,Yes
0.125,0.133333,Medium,Yes,High,High,Female,No,Low,Yes,No,No,No,Yes
0.125,0.833333,Medium,No,High,Medium,Female,Yes,Medium,No,Yes,Yes,Yes,Yes
0.8125,0.733333,None,Yes,High,Low,Female,Yes,High,No,Yes,No,No,Yes
0.3125,0.783333,High,Yes,High,Low,Female,Yes,High,Yes,No,Yes,Yes,Yes
0.1875,0.1,None,No,High,High,Male,Yes,Medium,Yes,No,No,Yes,Yes
0.825,0.316667,High,Yes,High,High,Male,Yes,Low,No,No,Yes,Yes,Yes
0.85,0.133333,None,No,Low,Low,Female,Yes,Low,Yes,No,Yes,Yes,Yes
0.075,0.933333,Low,Yes,Low,Low,Male,No,High,No,No,Yes,Yes,Yes
0.55,0.616667,Medium,Yes,Medium,Medium,Female,Yes,Low,Yes,Yes,Yes,No,Yes
0.1625,0.05,High,Yes,Low,Low,Female,Yes,High,No,Yes,No,Yes,Yes
0.625,0.2,Medium,Yes,Medium,Medium,Male,Yes,Low,No,Yes,Yes,Yes,Yes
0.9875,0.066667,High,Yes,Medium,High,Male,Yes,Low,No,Yes,No,No,Yes
0.8375,0.35,Medium,Yes,Low,High,Female,Yes,High,Yes,No,Yes,No,Yes
0.1375,0.166667,None,No,High,High,Female,Yes,Medium,Yes,Yes,No,No,Yes
0.7875,0.033333,High,No,Medium,Medium,Male,No,Low,No,Yes,No,Yes,Yes
0.275,0.883333,Medium,Yes,High,High,Female,Yes,Medium,Yes,Yes,No,Yes,Yes
0.4125,0.533333,Medium,No,High,Low,Male,No,High,Yes,Yes,No,Yes,Yes
0.15,0.1,High,Yes,Low,Medium,Female,Yes,Medium,Yes,Yes,No,No,Yes
0.9125,0.866667,Low,No,Medium,High,Female,Yes,Low,No,No,Yes,No,Yes
0.45,0.5,High,No,Low,Low,Female,Yes,High,Yes,Yes,No,Yes,Yes
0.4,0.25,Medium,No,High,High,Male,Yes,Low,Yes,Yes,Yes,No,Yes
0.275,0.666667,Medium,Yes,Medium,Medium,Female,No,Medium,Yes,No,Yes,No,Yes
0.9125,0.616667,Low,No,High,Low,Male,Yes,High,Yes,Yes,Yes,Yes,Yes
0.275,0.416667,Medium,Yes,Medium,Medium,Male,No,High,Yes,Yes,Yes,No,Yes
0.125,0.333333,Low,Yes,Low,Medium,Female,No,High,Yes,No,No,Yes,Yes
0.9,0.883333,High,No,Medium,Medium,Male,No,Medium,Yes,No,No,No,Yes
0.7625,0.6,None,Yes,Medium,Medium,Female,Yes,Medium,Yes,Yes,No,No,Yes
0.1875,0.783333,None,No,Low,Medium,Male,Yes,Low,Yes,No,Yes,No,Yes
0.225,0.75,Medium,No,High,High,Female,No,Medium,Yes,Yes,No,Yes,Yes
0.2,0.066667,None,Yes,Medium,Medium,Male,Yes,Low,No,Yes,No,No,Yes
0.1625,0.166667,None,Yes,High,High,Female,Yes,Low,Yes,No,Yes,Yes,Yes
0.025,0.583333,High,No,High,High,Female,Yes,Medium,No,Yes,Yes,Yes,Yes
0.2,0.533333,Low,Yes,High,Low,Female,Yes,High,Yes,Yes,No,No,Yes
0.1125,0.35,None,Yes,High,Low,Male,No,Low,No,Yes,No,Yes,Yes
0.65,0.633333,High,No,Medium,High,Male,No,Medium,Yes,No,No,No,Yes
0.25,0.65,Low,Yes,Low,High,Male,No,Medium,No,Yes,No,No,Yes
0.8125,0.45,Low,Yes,Low,High,Female,Yes,Low,Yes,Yes,No,Yes,Yes
0.2375,0.05,High,No,Medium,High,Male,Yes,Low,Yes,No,No,No,Yes
0.3875,0.3,High,Yes,High,Low,Male,No,Medium,Yes,No,Yes,No,Yes
0.9625,0.316667,High,No,Medium,High,Male,Yes,Low,No,Yes,Yes,Yes,Yes
0.4625,0.466667,Medium,Yes,High,Medium,Male,No,High,Yes,Yes,No,Yes,Yes
0.525,0.683333,Low,Yes,Low,High,Male,No,Medium,No,Yes,Yes,Yes,Yes
0.15,0.816667,Medium,Yes,Medium,Low,Female,No,Low,Yes,Yes,No,No,Yes
0.475,0.55,High,Yes,High,High,Male,No,High,No,No,Yes,Yes,Yes
0.975,0.166667,None,Yes,Medium,Medium,Male,No,Medium,Yes,No,No,No,Yes
0.925,0.483333,None,No,Low,High,Male,No,High,No,No,Yes,Yes,Yes
0.375,0.283333,High,Yes,Low,Medium,Male,Yes,Low,Yes,No,No,No,Yes
0,0.533333,Low,No,High,Low,Female,No,High,Yes,Yes,No,Yes,Yes
0.6,0.85,Medium,No,High,Low,Female,Yes,Low,No,No,Yes,Yes,Yes
0.6,0.616667,Medium,No,Medium,High,Female,No,Low,No,No,No,Yes,Yes
0.975,1,Medium,Yes,Medium,Low,Male,Yes,Low,No,No,Yes,No,Yes
0.25,0.483333,Low,No,Medium,High,Female,No,High,Yes,No,Yes,No,Yes
0.575,0.816667,Medium,Yes,Low,Medium,Male,Yes,High,No,Yes,Yes,Yes,Yes
0.525,0.05,Low,No,Medium,Medium,Female,No,Low,No,No,Yes,No,Yes
0.4125,0.216667,High,No,High,Low,Female,No,Low,No,No,Yes,Yes,Yes
0.825,0.533333,None,Yes,Low,Low,Female,Yes,High,No,No,Yes,No,Yes
0.5625,0.683333,High,Yes,Low,Low,Female,No,High,No,No,Yes,Yes,Yes
0.7375,0.283333,Medium,Yes,High,High,Female,No,Low,No,Yes,Yes,Yes,Yes
0.6875,0.833333,Low,Yes,Low,Medium,Female,Yes,Medium,No,Yes,No,Yes,Yes
0.5875,0.85,High,Yes,Low,Low,Female,Yes,Medium,Yes,Yes,Yes,No,Yes
0.7125,0.116667,None,No,Medium,High,Female,Yes,Low,No,No,No,Yes,Yes
0.525,0.733333,Medium,No,Medium,High,Female,No,Low,No,No,Yes,Yes,Yes
0.7,0.133333,Low,Yes,Low,High,Female,No,Low,Yes,No,Yes,Yes,Yes
0.575,0.1,None,No,Medium,Medium,Male,No,High,Yes,No,Yes,No,Yes
0.325,0.1,None,Yes,High,High,Female,Yes,Medium,Yes,No,Yes,No,Yes
0.0625,0.466667,None,Yes,Medium,High,Female,No,Medium,No,Yes,No,Yes,Yes
0.3375,0.966667,High,No,Medium,Low,Female,Yes,High,Yes,Yes,Yes,Yes,Yes
0.6875,0.716667,High,No,Medium,Low,Male,No,Medium,Yes,Yes,Yes,Yes,Yes
0.1875,0.633333,High,Yes,Medium,High,Female,Yes,Medium,Yes,No,Yes,Yes,Yes
0.4125,0.15,Medium,No,Medium,Medium,Male,Yes,Low,No,No,No,No,Yes
0.975,0.066667,Low,No,Medium,Medium,Male,Yes,Low,No,Yes,No,No,Yes
0.1125,0,Medium,No,High,Low,Male,Yes,High,Yes,Yes,Yes,Yes,Yes
0.6,0.616667,Medium,No,Medium,High,Female,No,Low,No,No,No,Yes,Yes
0.0375,0.333333,High,No,High,High,Female,No,Medium,No,No,Yes,No,Yes
0.175,0.65,Medium,Yes,Low,High,Male,No,Medium,No,Yes,No,No,Yes
0.5375,0.566667,Low,Yes,High,Medium,Male,No,Medium,Yes,No,No,No,Yes
0.1875,0.5,Low,No,Medium,High,Female,Yes,High,No,No,No,Yes,Yes
0.5,0.283333,High,No,High,Medium,Female,Yes,Medium,Yes,Yes,No,No,Yes
0.3375,0.45,Low,Yes,High,Low,Male,No,Medium,Yes,No,No,No,Yes
0.7,0.983333,None,No,Low,Low,Female,No,Low,Yes,Yes,Yes,No,Yes
0.6375,0.366667,Medium,Yes,Low,Low,Male,No,Low,Yes,Yes,Yes,No,Yes
0.85,0.433333,Medium,Yes,Low,High,Male,Yes,Medium,No,Yes,No,Yes,Yes
0.1,0.983333,High,No,Medium,Medium,Male,Yes,High,Yes,No,No,No,Yes
0.625,0.9,None,Yes,High,High,Male,Yes,Medium,No,No,No,Yes,Yes
0.85,0.716667,High,Yes,Medium,Low,Female,No,Medium,No,No,Yes,No,Yes
0.75,0.533333,Low,Yes,Low,Medium,Male,No,Medium,Yes,No,No,No,Yes
0.4625,0.216667,Medium,No,High,Low,Male,No,Medium,No,Yes,Yes,Yes,Yes
0.525,0.766667,None,No,Medium,High,Male,Yes,Low,Yes,Yes,No,Yes,Yes
0.3,0.75,Medium,No,High,Low,Male,No,High,Yes,Yes,Yes,Yes,Yes
0.8,0.083333,High,Yes,Medium,High,Female,No,Low,No,No,No,Yes,Yes
0.8125,0.516667,None,Yes,Medium,Low,Female,No,Medium,No,Yes,Yes,No,Yes
0.8125,0.35,None,No,Low,Medium,Male,No,Medium,Yes,No,Yes,No,Yes
0.575,0.116667,Medium,Yes,Low,Medium,Male,No,Low,No,No,No,No,Yes
0.3875,0.366667,Low,No,Medium,Low,Male,Yes,Low,Yes,Yes,Yes,No,Yes
0.125,0.266667,High,Yes,High,Medium,Female,No,Medium,Yes,No,Yes,Yes,Yes
0.525,0.583333,Medium,No,Low,Low,Male,Yes,Medium,Yes,Yes,No,Yes,Yes
0.775,0.816667,Medium,No,Low,High,Female,No,Medium,Yes,Yes,No,No,Yes
0.2125,0.333333,Medium,Yes,Medium,High,Female,No,Low,Yes,No,Yes,No,Yes
0.425,0.7,Low,Yes,Low,Medium,Female,No,High,Yes,No,Yes,Yes,Yes
0.275,0.733333,None,Yes,High,Low,Male,No,High,Yes,No,No,Yes,Yes
0.4875,0.116667,Low,No,High,Medium,Male,Yes,High,Yes,No,No,Yes,Yes
0.125,0.133333,Medium,No,Low,High,Female,Yes,High,No,No,Yes,Yes,Yes
0.3875,0.383333,Medium,No,High,High,Female,No,High,No,No,No,No,Yes
0.5,0.283333,High,No,High,Medium,Female,Yes,Medium,Yes,Yes,No,No,Yes
0.2625,0.95,None,Yes,Medium,Low,Male,No,Low,No,Yes,No,Yes,Yes
0.5875,0.9,Low,No,High,High,Female,Yes,Low,Yes,Yes,Yes,No,Yes
0.8875,0.033333,Medium,Yes,Medium,High,Female,Yes,Low,No,No,No,Yes,Yes
0.05,0.216667,Low,No,Low,High,Female,No,Medium,Yes,Yes,Yes,Yes,Yes
0.0625,0.466667,None,Yes,Medium,High,Female,No,Medium,No,Yes,No,Yes,Yes
0.3375,0.116667,None,No,Medium,High,Female,Yes,Low,Yes,Yes,No,Yes,Yes
0.95,0.966667,Low,Yes,Low,Low,Male,Yes,Medium,Yes,Yes,Yes,No,Yes
0.55,0.75,None,Yes,High,Low,Male,Yes,High,Yes,Yes,Yes,No,Yes
0.8875,0.816667,None,Yes,High,Low,Male,No,Low,Yes,Yes,Yes,No,Yes
0.1875,0.116667,Low,No,Low,High,Female,No,High,No,Yes,No,Yes,Yes
0.3375,0.933333,High,No,Medium,Low,Female,No,High,Yes,No,Yes,Yes,Yes
0.575,0.1,None,No,Medium,Medium,Male,No,High,Yes,No,Yes,No,Yes
0.0625,0.566667,Low,No,Low,Low,Male,Yes,High,No,Yes,Yes,Yes,Yes
0.975,0.85,High,Yes,Low,Medium,Female,No,Medium,No,No,Yes,No,Yes
0.2125,1,None,No,High,High,Male,No,High,No,No,No,No,Yes
0.575,0.083333,None,Yes,High,Low,Female,No,Medium,Yes,Yes,Yes,Yes,Yes
0.7125,0.933333,Low,Yes,High,High,Male,Yes,Medium,No,Yes,No,No,Yes
0.1125,0.25,None,Yes,Low,Medium,Male,Yes,Medium,No,No,No,Yes,Yes
0.3,0.616667,High,No,Low,Low,Female,Yes,High,Yes,Yes,Yes,No,Yes
0.2,0.516667,High,Yes,High,Medium,Male,Yes,Medium,Yes,Yes,No,Yes,Yes
0.2,0.133333,None,Yes,Medium,Low,Male,No,Low,Yes,Yes,Yes,Yes,Yes
0.1625,0.816667,None,No,Low,Low,Female,No,Low,Yes,No,Yes,No,Yes
0.45,0.266667,Low,Yes,Low,Medium,Male,No,Low,Yes,Yes,Yes,Yes,Yes
0.8125,0.75,Low,Yes,Low,Medium,Female,Yes,High,Yes,Yes,No,Yes,Yes
0.8,0.416667,High,No,Medium,Medium,Male,Yes,High,No,No,No,Yes,Yes
0.65,0.1,High,Yes,Low,Low,Female,No,Low,No,No,Yes,Yes,Yes
0.15,1,None,Yes,Low,Medium,Female,No,Low,No,No,Yes,Yes,Yes
0.9375,0.733333,Medium,Yes,Medium,Medium,Male,Yes,Medium,Yes,Yes,No,No,Yes
0.8875,0.55,Low,No,Medium,High,Female,No,Medium,No,Yes,Yes,No,Yes
0.7125,0.333333,Low,No,High,Medium,Male,Yes,High,Yes,Yes,Yes,No,Yes
0.575,1,High,No,Low,Medium,Male,Yes,Medium,No,No,Yes,No,Yes
0.0125,0.75,None,Yes,High,Low,Male,Yes,Medium,No,No,Yes,Yes,Yes
0.825,0.35,None,No,High,Low,Female,No,High,No,Yes,No,No,Yes
0.0625,0.516667,Medium,No,Medium,High,Female,Yes,Medium,Yes,Yes,Yes,Yes,Yes
0.3125,0.233333,Medium,No,High,High,Female,Yes,High,No,No,No,No,Yes
0.4125,0.35,High,Yes,High,Medium,Female,Yes,Medium,Yes,No,No,No,Yes
0.7375,0.116667,High,No,High,High,Male,Yes,High,Yes,Yes,Yes,Yes,Yes
0.8,0.016667,None,Yes,Low,High,Female,No,High,No,Yes,Yes,Yes,Yes
0.4625,0.933333,High,Yes,Medium,High,Male,Yes,Medium,Yes,No,Yes,No,Yes
0.675,0.233333,Low,No,High,High,Male,Yes,Low,No,No,Yes,Yes,Yes
0.7875,0.9,High,Yes,Medium,Low,Female,No,High,Yes,No,Yes,No,Yes
0.3875,0.133333,Medium,Yes,High,Medium,Female,No,Medium,No,No,No,No,Yes
0.4375,0.633333,High,No,Medium,Medium,Male,No,High,No,Yes,Yes,Yes,Yes
0.25,0.833333,Low,Yes,Low,High,Male,No,Low,Yes,Yes,Yes,Yes,Yes
0.7875,0.3,Low,No,High,Medium,Male,No,High,Yes,No,Yes,Yes,Yes
0.0625,0.383333,Medium,No,Low,High,Male,No,Low,Yes,No,No,Yes,Yes
0.1875,0.85,High,Yes,Medium,Medium,Male,No,Low,Yes,No,Yes,No,Yes
0.45,1,Low,No,High,High,Male,No,Low,No,Yes,No,No,Yes
0.6375,0,High,No,Medium,High,Female,Yes,Low,Yes,Yes,Yes,Yes,Yes
0.3875,0.9,High,Yes,Medium,High,Male,Yes,High,Yes,No,No,Yes,Yes
0.5625,0.7,Medium,Yes,Medium,High,Male,Yes,High,Yes,No,Yes,No,Yes
0.45,0.266667,Low,Yes,Low,Medium,Male,No,Low,Yes,Yes,Yes,Yes,Yes
0.5125,0.5,Medium,Yes,Low,High,Male,No,Low,No,Yes,Yes,Yes,Yes
0.25,0.983333,Low,No,High,Low,Male,No,Medium,Yes,No,Yes,Yes,Yes
0.225,0.25,None,Yes,Low,Low,Male,No,Low,No,Yes,No,Yes,Yes
0.9375,0.966667,Low,Yes,High,Medium,Female,No,High,Yes,No,Yes,Yes,Yes
0.325,0.55,High,No,Medium,Low,Female,Yes,High,No,Yes,No,No,Yes
0.25,0.6,None,Yes,High,Low,Female,No,Medium,No,Yes,Yes,No,Yes
0.625,0.2,Medium,Yes,Low,Medium,Female,Yes,Low,Yes,No,No,No,Yes
0.9875,0.95,High,No,High,Medium,Female,No,High,Yes,Yes,No,Yes,Yes
0.925,0.833333,None,Yes,High,Medium,Female,Yes,Low,No,Yes,Yes,Yes,Yes
0.4375,0.816667,Medium,Yes,High,Low,Male,Yes,High,No,No,No,Yes,Yes
0.4875,0.016667,Low,Yes,Low,Medium,Female,No,High,Yes,No,No,Yes,Yes
0.6875,0.866667,Medium,No,Low,Medium,Male,No,High,Yes,No,No,No,Yes
0.9125,0.65,High,No,Low,Medium,Male,No,Low,Yes,Yes,Yes,Yes,Yes
0.925,0.583333,Low,No,High,High,Female,Yes,Medium,Yes,Yes,Yes,Yes,Yes
0.7375,0.4,Low,No,Medium,Medium,Female,Yes,Medium,Yes,Yes,No,No,Yes
0.3625,0.3,None,No,Low,High,Male,No,High,Yes,Yes,No,Yes,Yes
0.7625,0.116667,Medium,No,Medium,Medium,Male,No,High,No,Yes,No,Yes,Yes
0.9125,0,High,No,High,Low,Female,Yes,Medium,No,No,Yes,No,Yes
0.875,0.5,Low,No,Low,Low,Female,Yes,High,No,Yes,Yes,No,Yes
0.4875,0.1,Low,Yes,Medium,High,Female,Yes,Medium,No,No,Yes,No,Yes
0,0.05,Low,Yes,Low,High,Male,Yes,Medium,Yes,Yes,Yes,Yes,Yes
0.1875,0.466667,None,No,Low,High,Male,Yes,Medium,No,Yes,No,Yes,Yes
0.4875,0.116667,Low,No,High,Medium,Male,Yes,High,Yes,No,No,Yes,Yes
0.7,0.8,High,No,Medium,Low,Male,Yes,Medium,Yes,No,Yes,No,Yes
0.1875,0.166667,Medium,No,Medium,Medium,Male,Yes,Medium,No,Yes,Yes,No,Yes
0.5375,0.45,Low,Yes,High,Medium,Male,No,High,Yes,No,Yes,No,Yes
0.4875,0.283333,None,No,Low,Low,Female,No,Medium,Yes,Yes,Yes,No,Yes
0.075,0.4,Medium,Yes,Medium,High,Female,No,Medium,Yes,Yes,No,Yes,Yes
0.1875,0.2,None,Yes,Medium,Medium,Female,Yes,Low,No,No,Yes,Yes,Yes
0.225,0.65,Medium,No,High,High,Male,No,Low,No,Yes,Yes,Yes,Yes
0.4625,0.466667,Medium,Yes,High,Medium,Male,No,High,Yes,Yes,No,Yes,Yes
0.3125,0.783333,High,Yes,High,Low,Female,Yes,High,Yes,No,Yes,Yes,Yes
0.375,0.283333,High,Yes,Low,Medium,Male,Yes,Low,Yes,No,No,No,Yes
0.475,0.633333,None,Yes,Low,High,Male,Yes,High,No,Yes,Yes,Yes,Yes
0.6375,0,High,No,Medium,High,Female,Yes,Low,Yes,Yes,Yes,Yes,Yes
0.45,0.333333,None,Yes,Low,High,Female,Yes,Low,No,No,Yes,No,Yes
0.55,0.466667,None,No,Medium,Medium,Female,Yes,High,No,Yes,No,Yes,Yes
0.2875,1,Medium,Yes,High,Low,Male,No,High,Yes,No,No,No,Yes
0.4875,0.616667,Medium,Yes,Medium,High,Male,No,Low,No,No,No,Yes,Yes
0.65,0.55,High,Yes,Medium,Medium,Female,Yes,Medium,No,Yes,Yes,Yes,Yes
0.5125,0.516667,Low,Yes,High,High,Male,No,High,No,Yes,Yes,No,Yes
0.8125,0.55,Low,No,Low,Low,Female,Yes,Medium,Yes,No,No,No,Yes
0.3125,0.1,High,Yes,Medium,High,Male,No,Low,No,No,Yes,No,Yes
0.0875,0.083333,Medium,Yes,Low,Medium,Male,Yes,High,No,No,No,Yes,Yes
0.375,0.733333,Low,No,Medium,High,Female,Yes,Low,Yes,Yes,No,No,Yes
0.3125,0.416667,Low,Yes,High,Medium,Male,Yes,High,Yes,No,No,Yes,Yes
0.0125,0.883333,Low,No,High,Low,Female,No,High,No,Yes,Yes,No,Yes
0.3625,0.166667,Low,No,High,High,Male,Yes,Low,No,No,Yes,No,Yes
0.7,0.25,None,Yes,Medium,High,Female,Yes,Low,No,No,No,No,Yes
0.6625,0.883333,None,Yes,Medium,High,Male,Yes,High,Yes,Yes,No,No,Yes
0.4625,0.166667,High,Yes,Medium,High,Female,Yes,Low,No,No,Yes,No,Yes
0.4875,0.35,None,Yes,High,Low,Female,Yes,Medium,No,Yes,Yes,No,Yes
0.7625,0.4,Medium,Yes,High,Medium,Female,No,High,No,No,Yes,No,Yes
0.3,0.283333,Medium,No,Medium,Low,Male,No,Low,Yes,No,No,Yes,Yes
0.425,0.633333,Low,Yes,Medium,High,Female,Yes,High,No,No,No,Yes,Yes
0.25,0.983333,Low,No,High,Low,Male,No,Medium,Yes,No,Yes,Yes,Yes
0.35,0.85,None,No,Medium,High,Male,No,Medium,Yes,Yes,Yes,No,Yes
0.95,1,Medium,No,Medium,Low,Female,Yes,Medium,No,Yes,Yes,Yes,Yes
0.4875,0.783333,Low,No,High,Medium,Male,Yes,Low,No,Yes,No,Yes,Yes
0.3625,0.316667,High,Yes,Medium,Low,Female,No,High,Yes,Yes,No,Yes,Yes
0.2,0.35,High,No,Medium,Low,Female,Yes,Medium,No,Yes,No,Yes,Yes
0.1125,0.05,Medium,Yes,Medium,High,Male,Yes,Medium,No,No,Yes,No,Yes
0.25,0.066667,Medium,Yes,Medium,Low,Female,Yes,Medium,Yes,Yes,Yes,No,Yes
0.9125,0.433333,High,Yes,Low,Low,Male,No,High,Yes,No,Yes,Yes,Yes
0.3125,0.85,High,No,High,Low,Male,No,Medium,Yes,Yes,Yes,Yes,Yes
0.65,0.1,High,Yes,Low,Low,Female,No,Low,No,No,Yes,Yes,Yes
0.825,0.716667,None,Yes,Medium,Medium,Male,Yes,Low,No,Yes,No,No,Yes
0.9,0.85,High,Yes,High,Medium,Male,Yes,Medium,Yes,Yes,Yes,Yes,Yes
0.3125,0.15,Low,No,Low,High,Male,No,Medium,Yes,Yes,Yes,No,Yes
0.5375,1,High,Yes,Low,Medium,Male,Yes,Medium,No,Yes,Yes,Yes,Yes
0.1375,0.1,High,No,Medium,Low,Male,Yes,High,No,Yes,Yes,Yes,Yes
0.8875,0.15,Medium,No,Low,Medium,Female,No,High,Yes,No,No,No,Yes
0.275,0.883333,Medium,No,High,Low,Male,No,Low,Yes,Yes,Yes,No,Yes
0.675,0.9,Medium,Yes,Medium,Low,Female,Yes,Low,No,Yes,No,Yes,Yes
0.9875,0.016667,Medium,Yes,Low,Medium,Male,No,High,Yes,Yes,Yes,Yes,Yes
0,0.316667,Medium,No,Medium,Medium,Female,No,Medium,No,No,No,No,Yes
0.975,0.5,None,No,High,High,Male,Yes,Low,Yes,Yes,No,Yes,Yes
0.7125,0.45,None,No,High,Medium,Male,No,High,Yes,No,Yes,Yes,Yes
0.7125,0.65,None,Yes,Medium,Low,Male,Yes,High,No,No,Yes,No,Yes
0.5375,0.2,High,Yes,Low,High,Female,No,Low,Yes,No,No,Yes,Yes
0,0.316667,Medium,No,Medium,Medium,Female,No,Medium,No,No,No,No,Yes
0.8625,0.116667,High,No,High,Medium,Female,Yes,Low,No,Yes,Yes,No,Yes
0.0625,0.833333,Medium,Yes,High,Low,Male,No,Low,No,Yes,Yes,No,Yes
0.0125,0.75,None,Yes,High,Low,Male,Yes,Medium,No,No,Yes,Yes,Yes
0.9,0.516667,Medium,Yes,Medium,High,Male,Yes,High,No,No,Yes,Yes,Yes
0.375,0,None,No,Medium,Low,Female,Yes,High,No,No,Yes,No,Yes
0.8875,0.35,Low,Yes,High,High,Male,No,Medium,No,Yes,Yes,No,Yes
0.0875,0.016667,Medium,Yes,Low,High,Female,Yes,High,Yes,Yes,No,No,Yes
0.2125,0.566667,High,No,Low,Medium,Female,No,Medium,No,Yes,Yes,Yes,Yes
0.8375,1,Low,No,Low,Medium,Female,No,Low,No,Yes,No,No,Yes
0,0.8,High,Yes,Low,High,Male,Yes,Medium,No,Yes,No,Yes,Yes
0.5375,0.7,High,Yes,Medium,High,Female,Yes,Low,Yes,No,Yes,No,Yes
0.0375,0.2,None,Yes,High,Medium,Male,Yes,High,Yes,No,Yes,Yes,Yes
0.975,0.283333,High,Yes,High,High,Male,No,Medium,No,Yes,No,Yes,Yes
0,0.8,High,Yes,Low,High,Male,Yes,Medium,No,Yes,No,Yes,Yes
0.8375,0.583333,None,No,Medium,High,Female,Yes,Medium,Yes,Yes,No,Yes,Yes
0.95,0.016667,Low,No,Low,Low,Female,No,Medium,Yes,No,Yes,No,Yes
0.9875,0.283333,Medium,Yes,Low,Medium,Male,Yes,Low,No,Yes,No,Yes,Yes
0.3,0.116667,Low,Yes,Low,High,Male,Yes,Medium,Yes,No,Yes,No,Yes
0.8375,0.083333,High,No,Medium,High,Male,No,Low,Yes,No,Yes,Yes,Yes
0.0625,0,Low,No,Low,High,Female,No,Medium,Yes,Yes,No,No,Yes
0.4625,0.333333,High,Yes,High,Medium,Male,Yes,Low,Yes,Yes,Yes,Yes,Yes
0.7625,0.416667,High,No,Low,Medium,Female,No,Medium,Yes,No,Yes,Yes,Yes
0.8625,0.833333,High,No,Low,High,Female,No,Medium,No,No,No,No,Yes
0.75,0.533333,Low,Yes,Low,Medium,Male,No,Medium,Yes,No,No,No,Yes
0.1125,0.333333,Low,No,Low,High,Male,Yes,Low,Yes,Yes,Yes,No,Yes
0.0625,0.65,High,Yes,Medium,High,Male,No,High,No,Yes,No,Yes,Yes
0.1375,0.933333,None,No,Low,High,Male,No,High,No,No,No,Yes,Yes
0.4375,0.7,High,Yes,Low,Medium,Female,No,Medium,No,No,No,Yes,Yes
0.025,0.533333,High,No,Low,Medium,Female,Yes,Low,Yes,Yes,Yes,No,Yes
0.5125,0.466667,High,Yes,Medium,High,Male,No,Medium,Yes,Yes,No,Yes,Yes
0.95,0.716667,Low,Yes,High,Medium,Female,No,Medium,No,Yes,Yes,Yes,Yes
0.125,0.583333,None,No,Low,Low,Male,Yes,Low,Yes,Yes,Yes,Yes,Yes
0.4,0.85,Low,No,Low,Low,Male,Yes,Low,No,No,No,Yes,Yes
0.2625,0.383333,None,No,Low,Medium,Female,No,Medium,Yes,No,Yes,No,Yes
0.575,0.15,Low,Yes,Medium,Medium,Female,No,Medium,Yes,Yes,No,Yes,Yes
0.125,0.966667,None,No,Medium,Low,Male,No,Medium,No,No,Yes,No,Yes
0.45,0.316667,Low,Yes,Low,Low,Male,No,Medium,Yes,No,No,No,Yes
0.4125,0.15,Medium,No,Medium,Medium,Male,Yes,Low,No,No,No,No,Yes
0.975,0.35,Low,Yes,Low,High,Female,Yes,High,No,Yes,No,No,Yes
0.3,0,High,Yes,High,High,Female,No,Medium,No,No,No,Yes,Yes
0.8125,0.083333,None,No,High,Low,Male,Yes,Medium,No,No,No,Yes,Yes
0.8,0.9,High,Yes,Low,Low,Female,No,Low,No,No,No,Yes,Yes
0.3125,0.7,None,No,Low,Low,Female,No,High,Yes,Yes,No,Yes,Yes
0.325,0.833333,Medium,No,High,High,Female,Yes,Low,No,No,No,No,Yes
0.1625,0.55,Medium,No,Medium,Low,Male,No,High,Yes,No,No,No,Yes
0.3625,0.883333,None,No,Low,Low,Male,No,High,No,No,Yes,No,Yes
0.25,0.983333,Low,No,High,Low,Male,No,Medium,Yes,No,Yes,Yes,Yes
0.85,0.983333,High,Yes,High,Medium,Male,Yes,Low,No,No,No,Yes,Yes
1,0.95,High,No,High,Low,Female,Yes,Low,No,Yes,Yes,Yes,Yes
0.7625,0.5,Low,No,Medium,High,Male,Yes,High,No,Yes,No,Yes,Yes
0.4625,0.466667,Medium,Yes,High,Medium,Male,No,High,Yes,Yes,No,Yes,Yes
0.25,0.483333,Low,No,Medium,High,Female,No,High,Yes,No,Yes,No,Yes
0.775,0.466667,Medium,No,Medium,High,Male,No,High,No,No,Yes,No,Yes
0.1,0.833333,Low,No,High,High,Male,Yes,Medium,No,Yes,No,No,Yes
0.4625,0.733333,Medium,No,Medium,Medium,Male,No,High,No,Yes,No,Yes,Yes
0.5,0.7,Medium,Yes,Low,Low,Male,Yes,Medium,Yes,No,Yes,Yes,Yes
0.5,0.733333,None,No,High,Low,Female,Yes,Low,No,Yes,No,Yes,Yes
0.175,0.183333,None,Yes,Medium,High,Female,Yes,High,Yes,No,Yes,Yes,Yes
0.1,0.166667,High,Yes,Medium,High,Female,No,Low,No,No,No,Yes,Yes
0.925,0.2,None,Yes,Medium,Low,Female,No,Low,No,No,No,No,Yes
0.725,0.583333,None,Yes,Low,High,Female,Yes,Low,Yes,No,Yes,No,Yes
0.5625,0.533333,Low,No,High,High,Male,Yes,Low,No,Yes,Yes,No,Yes
0.0375,0.916667,None,Yes,Medium,High,Female,No,High,No,No,Yes,No,Yes
0.1625,0.45,None,No,Medium,Low,Male,No,Medium,No,Yes,No,Yes,Yes
0.25,0.85,Low,Yes,Low,Low,Male,Yes,Low,No,Yes,No,Yes,Yes
0.4375,0.3,High,No,High,High,Female,Yes,High,Yes,Yes,No,No,Yes
0.675,0.466667,Low,No,Low,Medium,Male,Yes,Low,No,No,No,No,Yes
0.65,0.55,High,No,High,High,Male,Yes,Medium,Yes,No,No,Yes,Yes
0.6125,0.716667,Medium,Yes,Low,High,Female,Yes,Low,No,Yes,No,Yes,Yes
0.4875,0.95,Low,No,Low,Low,Male,No,High,Yes,Yes,No,No,Yes
0.925,0.583333,Low,No,High,High,Female,Yes,Medium,Yes,Yes,Yes,Yes,Yes
0.175,0.083333,High,Yes,Low,Medium,Male,No,Low,Yes,No,No,Yes,Yes
0.45,0.25,None,No,High,High,Male,Yes,Medium,No,No,Yes,No,Yes
0.4875,0.466667,Medium,Yes,Medium,Medium,Female,Yes,Low,Yes,Yes,Yes,No,Yes
0.7625,0.45,None,Yes,High,High,Male,No,High,No,No,Yes,No,Yes
0.425,0.066667,Medium,No,Medium,Medium,Male,No,Low,No,Yes,No,Yes,Yes
0.7125,0.066667,Low,Yes,Low,High,Female,Yes,Low,Yes,Yes,Yes,No,Yes
0.8875,0.9,Low,No,High,High,Male,Yes,Low,No,No,Yes,No,Yes
0.875,0.266667,Medium,Yes,Low,Medium,Male,Yes,Low,No,Yes,Yes,Yes,Yes
0.0875,0.25,Low,No,Medium,Low,Female,Yes,Low,No,Yes,No,No,Yes
0.4375,0.633333,High,No,Medium,Medium,Male,No,High,No,Yes,Yes,Yes,Yes
0.3125,0.933333,None,No,Low,High,Male,Yes,Low,Yes,Yes,Yes,No,Yes
0.05,0.983333,High,Yes,Low,Medium,Female,Yes,Low,No,No,No,No,Yes
0.4,0.883333,None,Yes,Medium,Low,Male,No,Low,Yes,No,No,Yes,Yes
0.3875,0.05,Medium,Yes,Low,Medium,Female,Yes,Medium,Yes,Yes,Yes,Yes,Yes
0.6125,0.495962,Low,No,Medium,Medium,Female,No,Medium,No,Yes,No,Yes,Yes
0.1375,0.1,Low,Yes,Low,Medium,Female,Yes,High,No,Yes,No,Yes,Yes
0.6125,0.466667,Medium,No,Medium,Medium,Female,Yes,High,No,Yes,Yes,Yes,Yes
0.175,0.25,High,Yes,Low,Medium,Female,No,Low,Yes,Yes,No,No,Yes
0,0.05,Low,Yes,Low,High,Male,Yes,Medium,Yes,Yes,Yes,Yes,Yes
0.625,0.2,Medium,Yes,Medium,Medium,Male,Yes,Low,No,Yes,Yes,Yes,Yes
0.4,0.1,Low,Yes,High,Low,Male,No,Low,Yes,No,No,No,Yes
0.625,0.166667,Medium,No,Low,High,Female,No,Medium,No,Yes,No,Yes,Yes
0.9,0.883333,High,No,Medium,Medium,Male,No,Medium,Yes,No,No,No,Yes
0.625,0.916667,Medium,Yes,Low,Low,Male,Yes,Low,Yes,No,No,No,Yes
0.4,0.666667,Low,Yes,Low,High,Male,Yes,Low,Yes,Yes,Yes,Yes,Yes
0.225,0.65,Medium,No,High,High,Male,No,Low,No,Yes,Yes,Yes,Yes
0.7125,0.2,Low,Yes,High,Low,Male,No,High,No,Yes,Yes,Yes,Yes
0.35,0.65,High,Yes,Low,Low,Male,Yes,Low,Yes,No,Yes,Yes,Yes
0.225,0.55,Medium,Yes,Low,High,Female,Yes,Medium,Yes,Yes,No,No,Yes
0.4875,0.45,High,Yes,Low,High,Female,No,Medium,No,No,Yes,No,Yes
0.2,0.133333,None,Yes,Medium,Low,Male,No,Low,Yes,Yes,Yes,Yes,Yes
0.325,0.766667,Medium,Yes,High,Low,Male,Yes,Low,No,Yes,Yes,No,Yes
0.65,0.216667,Medium,No,Medium,Low,Male,Yes,High,Yes,Yes,No,No,Yes
0.0125,0.333333,High,Yes,Medium,High,Male,Yes,High,Yes,No,Yes,Yes,Yes
0.1,0.366667,Medium,No,High,Medium,Female,No,Medium,Yes,Yes,Yes,No,Yes
0.8125,0.35,Medium,No,Medium,Medium,Male,Yes,High,No,No,No,Yes,Yes
0.925,0.05,Low,Yes,High,High,Male,Yes,Low,No,Yes,Yes,Yes,Yes
0.15,0.483333,Medium,Yes,High,High,Male,No,Low,No,No,Yes,Yes,Yes
0.85,0.983333,High,Yes,High,Medium,Male,Yes,Low,No,No,No,Yes,Yes
0.2875,0.883333,Low,Yes,Medium,Low,Female,No,Low,No,Yes,No,Yes,Yes
0.1,0.4,Medium,No,Low,Medium,Female,Yes,Medium,Yes,No,No,Yes,Yes
0.125,0.333333,Low,Yes,Low,Medium,Female,No,High,Yes,No,No,Yes,Yes
0.475,0.05,High,No,High,High,Male,Yes,Medium,No,Yes,Yes,Yes,Yes
0.95,0.716667,Low,Yes,High,Medium,Female,No,Medium,No,Yes,Yes,Yes,Yes
0.35,0.916667,Low,No,Medium,High,Female,Yes,Low,No,No,Yes,Yes,Yes
0.8125,0.816667,None,Yes,Medium,Medium,Female,No,Low,No,Yes,Yes,Yes,Yes
0.125,0.233333,None,Yes,High,Low,Male,No,High,Yes,No,Yes,No,Yes
0.7375,0.783333,None,Yes,High,Low,Male,No,Medium,Yes,Yes,No,Yes,Yes
0.975,0.433333,Medium,Yes,High,Medium,Female,Yes,High,No,No,Yes,Yes,Yes
0.4625,0.933333,Medium,Yes,Medium,High,Male,Yes,High,Yes,No,Yes,No,Yes
0.0375,0.383333,High,Yes,Low,Low,Male,No,Low,No,No,Yes,Yes,Yes
0.975,0.7,Low,No,High,Low,Female,No,Medium,No,Yes,No,Yes,Yes
0.5,0.666667,Low,Yes,Medium,Medium,Male,No,Medium,No,No,Yes,Yes,Yes
0.4875,0.283333,None,No,Medium,Medium,Female,No,Medium,No,Yes,Yes,Yes,Yes
0.625,0.433333,None,No,High,High,Male,No,High,No,No,No,Yes,Yes
0.0375,0.366667,None,No,Low,Medium,Male,No,Medium,Yes,Yes,No,No,Yes
0.225,0.633333,None,Yes,High,High,Female,No,Low,No,No,Yes,No,Yes
0.9375,0.166667,Low,No,High,High,Male,No,High,Yes,Yes,Yes,No,Yes
0.8625,0.25,High,No,Medium,Low,Male,Yes,High,No,No,Yes,Yes,Yes
0.4625,0.333333,Medium,Yes,High,High,Male,No,High,No,Yes,No,Yes,Yes
0.85,0.716667,Medium,No,Low,High,Male,No,Medium,No,Yes,No,Yes,Yes
0.6,0.883333,Low,Yes,High,Medium,Male,No,High,Yes,Yes,Yes,No,Yes
0.8375,0.1,Low,No,Medium,High,Female,No,High,No,No,No,No,Yes
0.2,0.783333,None,Yes,Medium,Medium,Female,No,High,Yes,Yes,No,No,Yes
0.2375,0.7,High,No,High,Medium,Male,Yes,Medium,Yes,No,No,Yes,Yes
0.975,0.45,High,Yes,Low,High,Female,Yes,Medium,No,Yes,Yes,Yes,Yes
0.9875,0.433333,High,Yes,Medium,High,Male,No,High,Yes,No,Yes,Yes,Yes
0.4625,0.35,High,No,Medium,Low,Female,No,Low,No,No,No,No,Yes
0.4625,0.333333,Medium,Yes,High,High,Male,No,High,No,Yes,No,Yes,Yes
0.25,0.4,High,No,High,High,Female,No,Low,Yes,No,Yes,No,Yes
0.3125,0.266667,Medium,No,High,High,Male,No,High,No,No,No,No,Yes
0.825,0.05,None,Yes,High,Low,Female,Yes,High,Yes,No,Yes,No,Yes
0.4875,0.05,Low,No,High,Low,Female,Yes,Medium,Yes,Yes,Yes,No,Yes
0.025,0.866667,Low,Yes,Low,Medium,Male,Yes,High,Yes,Yes,No,No,Yes
0.2875,0.383333,None,No,Medium,High,Female,Yes,High,No,No,Yes,No,Yes
0.1,0.983333,High,No,Medium,Medium,Male,Yes,High,Yes,No,No,No,Yes
0.1,0.833333,Low,No,High,High,Male,Yes,Medium,No,Yes,No,No,Yes
0.2375,0.55,Medium,Yes,Low,Medium,Male,Yes,High,Yes,No,Yes,No,Yes
0.25,0.066667,Medium,Yes,Medium,Low,Female,Yes,Medium,Yes,Yes,Yes,No,Yes
0.6875,0.983333,High,No,Low,High,Female,No,Low,No,No,No,No,Yes
0.425,0.066667,Medium,No,Medium,Medium,Male,No,Low,No,Yes,No,Yes,Yes
0.2375,0.6,Medium,No,Low,High,Female,No,Medium,No,Yes,No,No,Yes
0.7125,0.316667,None,No,High,Low,Male,No,Medium,Yes,Yes,Yes,Yes,Yes
0.3375,0.6,None,No,High,High,Male,No,High,Yes,Yes,No,No,Yes
0.9875,0.1,High,Yes,Medium,High,Male,No,Low,No,Yes,Yes,No,Yes
0.675,0.466667,Low,No,Low,Medium,Male,Yes,Low,No,No,No,No,Yes
0.95,0.45,High,No,Low,Medium,Female,Yes,Medium,Yes,Yes,Yes,Yes,Yes
0.4125,0.6,Medium,No,Low,Medium,Male,No,Low,Yes,No,No,Yes,Yes
0.15,1,None,Yes,Low,Medium,Female,No,Low,No,No,Yes,Yes,Yes
0.175,0.833333,Medium,Yes,High,Medium,Male,Yes,Medium,No,Yes,No,No,Yes
0.75,0.516667,None,No,Low,Medium,Female,No,Low,No,Yes,Yes,No,Yes
0.1875,0.2,Medium,Yes,Medium,High,Female,No,High,No,Yes,Yes,Yes,Yes
0.925,0.95,Medium,No,Low,Low,Female,Yes,Medium,No,No,Yes,Yes,Yes
0.3875,0.366667,Low,No,Medium,Low,Male,Yes,Low,Yes,Yes,Yes,No,Yes
0.7375,0.1,Medium,Yes,Low,Low,Male,Yes,Medium,Yes,No,Yes,Yes,Yes
0.3375,0.6,None,No,High,High,Male,No,High,Yes,Yes,No,No,Yes
0.9375,0.883333,Medium,No,Medium,Low,Female,Yes,Low,Yes,Yes,No,No,Yes
0.25,0.766667,High,Yes,Medium,High,Male,Yes,Medium,Yes,No,Yes,No,Yes
0.8875,0.466667,None,Yes,High,High,Male,Yes,High,No,Yes,Yes,Yes,Yes
0.125,0.583333,None,No,Low,Low,Male,Yes,Low,Yes,Yes,Yes,Yes,Yes
0.9125,0.583333,Medium,No,High,High,Female,No,High,No,No,No,Yes,Yes
0.7875,0.333333,High,Yes,Low,Low,Male,No,Medium,No,Yes,No,Yes,Yes
0.7125,0.066667,Low,Yes,Low,High,Female,Yes,Low,Yes,Yes,Yes,No,Yes
0.225,0.65,Medium,No,High,High,Male,No,Low,No,Yes,Yes,Yes,Yes
0.0375,0.816667,None,Yes,Medium,Low,Male,Yes,Medium,Yes,Yes,Yes,No,Yes
0.5125,0.866667,High,Yes,Low,High,Male,No,Medium,Yes,Yes,Yes,No,Yes
0.1875,0.166667,Medium,No,Medium,Medium,Male,Yes,Medium,No,Yes,Yes,No,Yes
0.65,0.55,High,Yes,Medium,Medium,Female,Yes,Medium,No,Yes,Yes,Yes,Yes
0.625,0.183333,High,Yes,Medium,Medium,Female,Yes,High,Yes,No,No,No,Yes
0.575,0.6,Medium,Yes,High,Low,Female,Yes,Medium,Yes,No,Yes,No,Yes
0.325,0.383333,None,Yes,High,High,Female,Yes,Medium,Yes,No,No,No,Yes
0.25,0.85,Low,Yes,Low,Low,Male,Yes,Low,No,Yes,No,Yes,Yes
0.0875,0.016667,Medium,Yes,Low,High,Female,Yes,High,Yes,Yes,No,No,Yes
0.075,0.333333,Low,No,High,High,Female,Yes,High,Yes,No,No,Yes,Yes
0.025,0.183333,High,Yes,High,Medium,Male,Yes,High,Yes,No,Yes,Yes,Yes
0.875,0.166667,Low,No,Low,Low,Male,Yes,High,Yes,No,No,Yes,Yes
0.0125,0.233333,Low,No,Low,High,Male,Yes,Medium,Yes,No,No,Yes,Yes
0.325,0.183333,Medium,No,High,Low,Female,Yes,Low,Yes,Yes,Yes,No,Yes
0.625,0.633333,None,Yes,Low,High,Female,No,High,No,Yes,No,No,Yes
0.8625,0.283333,None,Yes,Medium,High,Male,Yes,Low,Yes,No,Yes,Yes,Yes
0.4125,0.816667,Medium,Yes,Medium,High,Male,Yes,Medium,No,Yes,No,Yes,Yes
0.9375,0,Low,No,Low,High,Female,Yes,Medium,Yes,Yes,Yes,No,Yes
0.0875,0.25,Low,No,Medium,Low,Female,Yes,Low,No,Yes,No,No,Yes
0.3875,1,High,Yes,Medium,High,Female,Yes,High,Yes,No,No,No,Yes
0.3375,0.833333,High,No,High,High,Female,Yes,Medium,No,No,No,Yes,Yes
0.3875,0.65,None,No,High,High,Female,Yes,Low,Yes,Yes,Yes,Yes,Yes
0.4,0.666667,Low,Yes,Low,High,Male,Yes,Low,Yes,Yes,Yes,Yes,Yes
0.725,0.5,Medium,No,Low,High,Female,Yes,Low,Yes,No,Yes,No,Yes
0.8375,0.466667,None,No,Low,Low,Male,No,Medium,Yes,No,Yes,Yes,Yes
0.8875,0.65,High,No,High,Medium,Male,Yes,Low,No,Yes,No,No,Yes
0.6625,0.55,Medium,Yes,High,Low,Female,Yes,Low,Yes,No,Yes,No,Yes
0.2375,0.166667,None,No,Low,Low,Female,Yes,Medium,No,No,No,No,Yes
0.6875,0.783333,Medium,No,Medium,High,Female,No,Low,Yes,No,Yes,Yes,Yes
0.3375,0.45,Low,Yes,Low,Low,Male,No,Low,Yes,Yes,Yes,Yes,Yes
0.05,0.283333,Low,No,Medium,Medium,Male,Yes,High,Yes,Yes,Yes,No,Yes
0.4625,0.266667,High,Yes,Medium,Medium,Male,Yes,Medium,No,No,No,No,Yes
0.85,0.316667,Medium,Yes,Medium,Low,Female,Yes,Medium,Yes,No,No,Yes,Yes
0.725,0.083333,High,No,Medium,Low,Female,Yes,High,No,Yes,Yes,No,Yes
0.1125,0.483333,High,Yes,Medium,Medium,Female,Yes,High,Yes,No,Yes,Yes,Yes
0.4625,0.833333,High,No,Low,Low,Male,No,Low,No,No,Yes,No,Yes
0.875,0.5,Medium,No,Medium,High,Female,Yes,Low,No,No,No,No,Yes
0.175,0.15,High,No,Medium,Medium,Female,Yes,Medium,No,No,No,No,Yes
0.7375,0.666667,Medium,Yes,High,Low,Female,No,Medium,No,No,No,Yes,Yes
0.0375,0.533333,None,Yes,High,Medium,Male,No,High,No,No,Yes,Yes,Yes
0.425,0.633333,Low,Yes,Medium,High,Female,Yes,High,No,No,No,Yes,Yes
0.925,0.7,Medium,Yes,High,Medium,Male,Yes,Low,No,No,No,No,Yes
0.475,0.366667,Low,No,Low,Medium,Female,Yes,Low,No,Yes,No,No,Yes
0.025,0.533333,High,No,Low,Medium,Female,Yes,Low,Yes,Yes,Yes,No,Yes
0.6375,0.95,Low,Yes,High,High,Male,No,Low,No,Yes,No,Yes,Yes
0.05,0.033333,High,No,High,Low,Female,No,Medium,No,Yes,Yes,No,Yes
0.725,0.233333,None,No,Medium,Medium,Male,Yes,High,Yes,Yes,No,No,Yes
0.5375,0.266667,Medium,Yes,Medium,Low,Female,No,Medium,Yes,Yes,Yes,Yes,Yes
0.975,0.283333,High,Yes,High,High,Male,No,Medium,No,Yes,No,Yes,Yes
0.85,0.983333,High,Yes,High,Medium,Male,Yes,Low,No,No,No,Yes,Yes
0.5,0.883333,None,Yes,Low,High,Female,Yes,High,No,No,No,No,Yes
0.0375,0.816667,None,Yes,Medium,Low,Male,Yes,Medium,Yes,Yes,Yes,No,Yes
0.375,0,None,Yes,High,Medium,Female,Yes,Medium,Yes,No,Yes,No,Yes
0.1875,0.116667,Low,No,Low,High,Female,No,High,No,Yes,No,Yes,Yes
0.4875,0.15,Medium,No,Low,Low,Male,Yes,Medium,No,Yes,No,No,Yes
0.6125,1,Low,Yes,Medium,Medium,Female,No,High,Yes,No,Yes,No,Yes
0.0375,0.583333,None,Yes,Low,Low,Female,Yes,High,No,Yes,No,Yes,Yes
0.2375,0.816667,Low,Yes,High,Medium,Male,Yes,Low,Yes,No,No,Yes,Yes
0.2125,0.333333,Medium,Yes,Medium,High,Female,No,Low,Yes,No,Yes,No,Yes
0.15,0.15,Medium,No,Medium,Low,Male,No,Medium,No,Yes,No,No,Yes
0.725,0.116667,Medium,Yes,Low,Medium,Female,Yes,High,Yes,Yes,No,No,Yes
0.95,0.516667,Low,No,Low,Low,Female,Yes,High,Yes,Yes,Yes,No,Yes
0.725,0.2,Low,Yes,Low,Low,Female,No,Medium,No,Yes,No,Yes,Yes
0.5375,0.15,High,No,Low,High,Female,No,Medium,No,No,Yes,Yes,Yes
0.6625,0.216667,High,No,Medium,Medium,Female,Yes,High,Yes,Yes,No,No,Yes
0.4375,0.7,High,Yes,Low,Medium,Female,No,Medium,No,No,No,Yes,Yes
0.9125,0.416667,Low,No,Medium,Medium,Male,Yes,Low,No,No,No,No,Yes
0.925,0.033333,Low,Yes,Low,Low,Female,No,High,No,Yes,Yes,Yes,Yes
0.9125,0.066667,Medium,No,High,Low,Female,No,Medium,Yes,No,Yes,Yes,Yes
0.925,0.083333,High,Yes,Medium,Medium,Female,Yes,Medium,No,Yes,No,No,Yes
0.25,0.983333,Low,No,High,Low,Female,No,Low,Yes,Yes,Yes,Yes,Yes
0.3875,0.383333,Medium,No,High,High,Female,No,High,No,No,No,No,Yes
0,0.85,None,Yes,Medium,Medium,Male,Yes,Low,Yes,Yes,Yes,Yes,Yes
0.025,0.866667,Low,Yes,Low,Medium,Male,Yes,High,Yes,Yes,No,No,Yes
0.8,0.933333,High,No,Low,High,Female,Yes,Medium,No,Yes,No,Yes,Yes
0.1375,0.483333,None,Yes,Medium,Low,Female,Yes,Medium,No,No,Yes,Yes,Yes
0.225,0.25,None,Yes,High,Low,Male,No,High,No,Yes,No,No,Yes
0.2875,0.183333,None,Yes,Low,Medium,Female,Yes,Low,No,Yes,Yes,Yes,Yes
0.1375,0.066667,Low,No,High,High,Female,Yes,High,Yes,Yes,No,Yes,Yes
0.7625,0.416667,High,No,Low,Medium,Female,No,Medium,Yes,No,Yes,Yes,Yes
0.8625,0.933333,Low,Yes,High,High,Male,Yes,Low,Yes,Yes,No,Yes,Yes
0.125,0.366667,Low,No,Low,Medium,Male,No,Low,Yes,No,Yes,No,Yes
0.975,0.583333,High,Yes,Medium,Low,Male,No,Medium,Yes,Yes,Yes,No,Yes
0.2125,0.216667,None,No,Low,High,Male,Yes,Medium,Yes,No,Yes,No,Yes
0.625,0.633333,None,Yes,Low,High,Female,No,High,No,Yes,No,No,Yes
0.675,0,None,Yes,Medium,Medium,Male,Yes,Medium,No,Yes,No,No,Yes
0.0875,0.9,None,No,High,Medium,Female,No,Medium,Yes,Yes,No,No,Yes
0.4125,0.5,High,Yes,Medium,Low,Male,Yes,Medium,Yes,No,No,Yes,Yes
0.6,0.9,High,No,High,Medium,Female,No,Medium,No,Yes,Yes,Yes,Yes
0.5125,0.866667,Medium,Yes,Low,Low,Female,Yes,Medium,Yes,Yes,No,No,Yes
0.4625,0.9,Medium,Yes,High,High,Female,No,Medium,No,Yes,No,No,Yes
0.8125,0.266667,High,Yes,Low,High,Female,No,Low,Yes,No,No,Yes,Yes
0.9125,0.6,High,Yes,Low,Medium,Male,No,High,No,No,No,No,Yes
0.7625,0.1,High,No,Low,Medium,Male,Yes,Medium,Yes,Yes,Yes,No,Yes
0.1,0.533333,None,Yes,Low,Low,Male,No,High,Yes,Yes,No,Yes,Yes
0.925,0.95,Medium,No,Low,Low,Female,Yes,Medium,No,No,Yes,Yes,Yes
0.6625,0.25,Low,Yes,Medium,Low,Male,No,Low,Yes,Yes,Yes,No,Yes
0.6,0.883333,Low,Yes,High,Medium,Male,No,High,Yes,Yes,Yes,No,Yes
0.5375,0.35,Medium,No,Low,Medium,Male,No,Medium,Yes,Yes,No,No,Yes
0.7,0.066667,Low,No,High,High,Male,Yes,Medium,No,Yes,No,Yes,Yes
0.7875,0,High,No,High,High,Female,No,High,No,Yes,No,Yes,Yes
0.275,0.833333,None,No,Medium,Low,Female,Yes,Low,Yes,No,Yes,No,Yes
0,0.666667,Low,Yes,Medium,High,Male,Yes,Low,No,No,Yes,No,Yes
0.25,0,Low,No,Low,Medium,Male,No,Medium,Yes,No,Yes,No,Yes
0,0.566667,High,Yes,High,Low,Male,Yes,High,Yes,No,Yes,No,Yes
0.775,0.066667,Low,No,Low,Low,Female,Yes,Low,No,No,Yes,No,Yes
0.6125,0.066667,High,No,High,Medium,Male,No,Medium,Yes,No,No,Yes,Yes
0.675,0.233333,Low,No,High,High,Male,Yes,Low,No,No,Yes,Yes,Yes
0.7875,0.333333,High,Yes,Low,Low,Male,No,Medium,No,Yes,No,Yes,Yes
0.275,0.233333,Low,No,Low,Low,Male,No,Medium,No,No,Yes,Yes,Yes
0.1,0.15,Low,Yes,Medium,Medium,Female,Yes,High,No,No,No,Yes,Yes
0.7875,0.3,Low,No,High,Medium,Male,No,High,Yes,No,Yes,Yes,Yes
0.3,0.383333,High,No,Medium,Medium,Male,No,Medium,No,No,Yes,No,Yes
0.1125,0.3,Medium,No,High,Low,Male,No,High,Yes,No,Yes,No,Yes
0.6375,0.9,High,No,High,High,Male,Yes,High,No,Yes,No,No,Yes
0.3625,0.75,Medium,Yes,Low,Low,Female,Yes,Low,No,No,Yes,Yes,Yes
0.3375,0.416667,Low,Yes,Low,Low,Female,Yes,High,Yes,Yes,No,No,Yes
0.3125,0.266667,Medium,No,High,High,Male,No,High,No,No,No,No,Yes
0.0375,0.333333,High,No,High,High,Female,No,Medium,No,No,Yes,No,Yes
0.6375,0.95,None,No,Low,Medium,Female,No,Low,Yes,No,Yes,No,Yes
0.075,0.1,Medium,Yes,Low,Medium,Female,Yes,Low,Yes,Yes,Yes,Yes,Yes
0.3375,0.683333,Medium,No,Low,High,Female,Yes,High,Yes,Yes,No,No,Yes
0.25,0.083333,Medium,No,High,High,Female,No,Medium,Yes,Yes,No,No,Yes
0.1,0.25,Low,No,Medium,Low,Female,No,Low,Yes,No,Yes,No,Yes
0.925,0.95,High,No,Low,High,Male,No,High,Yes,No,Yes,Yes,Yes
0.4625,0.366667,None,Yes,High,High,Female,Yes,Medium,Yes,Yes,No,Yes,Yes
0.775,0.25,Low,Yes,Low,High,Female,No,Low,No,No,No,No,Yes
0.6125,0.183333,Low,Yes,Medium,Low,Female,No,High,No,No,Yes,Yes,Yes
0.7625,0.816667,Low,No,Medium,High,Male,No,Medium,No,Yes,No,No,Yes
0.225,0.25,Medium,No,Medium,High,Female,No,Low,Yes,Yes,No,No,Yes
0.825,0.316667,High,Yes,High,High,Male,Yes,Low,No,No,Yes,Yes,Yes
0.3125,0.666667,None,No,Low,Low,Female,No,High,No,No,Yes,Yes,Yes
0.625,0.316667,High,Yes,Low,High,Male,No,High,Yes,Yes,Yes,Yes,Yes
0.625,0.033333,High,No,Low,High,Male,No,Medium,No,Yes,No,No,Yes
0.025,0.4,Low,Yes,Medium,High,Female,No,Low,No,No,Yes,Yes,Yes
0.95,0.1,High,No,Low,Low,Female,No,Low,Yes,Yes,Yes,No,Yes
0.9125,0.933333,Low,Yes,High,High,Female,No,High,No,Yes,Yes,No,Yes
0.1875,0.55,None,No,Low,Medium,Male,No,Medium,No,No,Yes,No,Yes
0.825,0.783333,High,Yes,Low,Low,Female,No,Low,Yes,No,Yes,Yes,Yes
0.8625,0.933333,None,Yes,High,Low,Male,No,Medium,No,No,No,No,Yes
0.5,0.283333,High,No,High,Medium,Female,Yes,Medium,Yes,Yes,No,No,Yes
0.325,0.383333,None,Yes,High,High,Female,Yes,Medium,Yes,No,No,No,Yes
0.025,0.6,Low,No,High,High,Female,Yes,Low,No,No,No,Yes,Yes
0.525,0.05,Low,No,Medium,Medium,Female,No,Low,No,No,Yes,No,Yes
0.8625,0.133333,High,Yes,Medium,High,Female,Yes,Medium,Yes,Yes,No,Yes,Yes
0.5125,0.85,Low,No,Low,Low,Female,Yes,High,Yes,No,No,No,Yes
0.6375,0.466667,Low,No,High,Low,Male,No,High,Yes,Yes,No,No,Yes
0.6125,0.495962,Low,No,Medium,Medium,Female,No,Medium,No,Yes,No,Yes,Yes
0.3125,0.416667,Low,Yes,High,Medium,Male,Yes,High,Yes,No,No,Yes,Yes
0.4875,0.483333,High,Yes,Medium,High,Female,Yes,Medium,Yes,No,Yes,Yes,Yes
0.425,0.633333,Low,Yes,Medium,High,Female,Yes,High,No,No,No,Yes,Yes
0.8125,0.316667,Medium,No,Medium,Medium,Female,Yes,High,No,Yes,Yes,Yes,Yes
0.5875,0.35,High,No,Medium,Low,Male,No,Medium,Yes,No,Yes,Yes,Yes
0.875,0.583333,High,No,Low,Low,Male,Yes,Low,No,Yes,No,Yes,Yes
0.7375,0.016667,Low,Yes,Low,Medium,Female,Yes,Low,No,No,No,No,Yes
0.6375,0.416667,Medium,Yes,Low,High,Male,Yes,High,No,Yes,Yes,Yes,Yes
0.35,0.516667,High,Yes,High,High,Male,No,High,Yes,Yes,No,No,Yes
0.35,0.1,High,No,Medium,Low,Male,No,Medium,Yes,No,No,No,Yes
0.1875,0.183333,High,No,Medium,High,Male,No,High,Yes,Yes,Yes,Yes,Yes
0.5625,0.683333,High,Yes,Low,Low,Female,No,High,No,No,Yes,Yes,Yes
0.175,0.3,Medium,No,High,Medium,Male,Yes,High,Yes,No,Yes,Yes,Yes
0.6625,0.683333,Medium,Yes,Medium,High,Female,No,Low,No,Yes,No,No,Yes
0.875,0.166667,Low,No,Low,Low,Male,Yes,High,Yes,No,No,Yes,Yes
0.4875,0.916667,None,No,Low,Low,Female,Yes,Medium,No,Yes,No,Yes,Yes
0.85,0.866667,Low,No,High,Medium,Male,Yes,High,No,No,No,Yes,Yes
0.15,0.5,Low,Yes,Medium,Low,Male,Yes,Medium,Yes,No,No,No,Yes
0.6,0.45,High,No,Medium,Medium,Male,Yes,Low,No,Yes,No,No,Yes
0.475,0.366667,Low,No,Low,Medium,Female,Yes,Low,No,Yes,No,No,Yes
0.325,0.966667,Medium,Yes,Medium,Low,Female,No,Medium,No,No,Yes,No,Yes
0.8375,0.95,Medium,No,Low,High,Male,No,Low,Yes,No,No,No,Yes
0.0625,1,High,No,High,High,Female,No,Low,No,No,Yes,Yes,Yes
0.0625,0.033333,High,Yes,Low,Medium,Male,Yes,Low,No,Yes,Yes,No,Yes
0.7375,0.016667,Low,Yes,Low,Medium,Female,Yes,Low,No,No,No,No,Yes
0.975,0.85,High,Yes,Low,Medium,Female,No,Medium,No,No,Yes,No,Yes
0.425,0.7,Low,Yes,Low,Medium,Female,No,High,Yes,No,Yes,Yes,Yes
0.6875,0.966667,Medium,No,Medium,Low,Male,No,High,No,Yes,Yes,No,Yes
0.9,0.883333,High,No,Medium,Medium,Male,No,Medium,Yes,No,No,No,Yes
0.625,0.616667,Medium,Yes,Medium,High,Male,No,Medium,Yes,Yes,Yes,Yes,Yes
0.5375,0.833333,Medium,No,Low,High,Female,Yes,Low,No,No,Yes,Yes,Yes
0.1625,0.15,Medium,No,Low,Low,Female,No,Medium,Yes,Yes,No,No,Yes
0.5125,0.866667,Medium,Yes,Low,Low,Female,Yes,Medium,Yes,Yes,No,No,Yes
0.675,0.633333,Low,No,Low,Low,Female,No,Low,Yes,No,No,No,Yes
0.875,0.7,Medium,Yes,Low,Low,Male,No,High,Yes,No,Yes,No,Yes
0.1875,0.2,Low,Yes,Medium,High,Male,No,Medium,No,Yes,Yes,Yes,Yes
0.65,0.666667,Low,No,High,High,Female,Yes,Low,No,Yes,Yes,No,Yes
0.65,0.866667,High,Yes,Low,High,Male,No,High,Yes,Yes,No,Yes,Yes
0.7875,1,None,Yes,High,High,Female,Yes,High,No,No,Yes,No,Yes
0.6625,0.883333,None,Yes,Medium,High,Male,Yes,High,Yes,Yes,No,No,Yes
0.5125,0.266667,High,Yes,High,High,Male,No,High,Yes,No,No,Yes,Yes
0.7,0.1,High,Yes,Low,Low,Male,Yes,Low,Yes,No,No,Yes,Yes
0.8875,0.6,Low,Yes,Low,Low,Female,No,Low,No,No,No,No,Yes
0.8625,0.3,Medium,No,Low,High,Female,No,Medium,Yes,No,No,No,Yes
0.7625,0.2,High,Yes,Medium,Medium,Male,Yes,Medium,No,No,No,No,Yes
0.2375,0.166667,Low,Yes,Low,Medium,Female,No,Medium,Yes,Yes,Yes,Yes,Yes
0.501778,0.733333,High,No,High,Low,Female,No,Medium,Yes,Yes,Yes,Yes,Yes
0.625,0.566667,None,No,Medium,Low,Female,No,High,Yes,Yes,No,Yes,Yes
0.1625,0.75,High,Yes,Medium,High,Female,Yes,High,Yes,Yes,No,Yes,Yes
0.025,0.583333,Medium,Yes,Low,Low,Male,Yes,Low,Yes,Yes,Yes,No,Yes
0.4,0.85,Low,No,Low,Low,Male,Yes,Low,No,No,No,Yes,Yes
0.0875,0.9,None,No,High,Medium,Female,No,Medium,Yes,Yes,No,No,Yes
0.525,0.15,High,No,Medium,Medium,Female,Yes,Low,No,No,No,Yes,Yes
0.65,0.216667,Medium,No,Low,Low,Male,No,Medium,No,Yes,No,No,Yes
0.6875,0.833333,Low,Yes,Low,Medium,Female,Yes,Medium,No,Yes,No,Yes,Yes
1,0.466667,Medium,Yes,Medium,High,Male,No,Medium,Yes,No,No,No,Yes
0,0.033333,None,No,Medium,High,Female,No,Medium,Yes,Yes,Yes,Yes,Yes
0.8,0.85,Low,Yes,Low,Low,Female,Yes,Low,Yes,Yes,No,Yes,Yes
0.5625,0.133333,Low,No,High,High,Male,No,Low,No,No,No,Yes,Yes
0.3125,0.283333,Low,No,Medium,Low,Male,No,High,No,Yes,Yes,Yes,Yes
0.8,0.616667,Low,Yes,High,High,Male,No,High,Yes,No,Yes,Yes,Yes
0.9,0.183333,Medium,No,Low,Low,Male,No,High,Yes,Yes,Yes,Yes,Yes
0.625,0.9,None,Yes,High,High,Male,Yes,Medium,No,No,No,Yes,Yes
0.8375,0.516667,Medium,No,Medium,Low,Female,Yes,High,No,No,No,No,Yes
0.3125,0.516667,High,Yes,Low,Medium,Male,No,Low,No,No,No,No,Yes
0.9125,0.45,Low,No,Low,Low,Male,No,High,Yes,No,Yes,Yes,Yes
0.5125,0.516667,High,Yes,Low,Medium,Female,Yes,Medium,Yes,No,No,No,Yes
0.2125,0.133333,None,No,Low,Medium,Male,Yes,Low,Yes,Yes,No,No,Yes
0.3375,0.416667,Low,Yes,Low,Low,Female,Yes,High,Yes,Yes,No,No,Yes
0.275,0.533333,None,Yes,High,Medium,Female,Yes,High,No,No,No,Yes,Yes
0.8875,0.95,High,Yes,Low,Medium,Male,No,Low,No,No,Yes,Yes,Yes
0.8625,0.916667,High,No,High,Medium,Male,No,Low,No,No,No,No,Yes
0.85,0.933333,None,No,Low,Low,Male,Yes,Low,Yes,Yes,Yes,Yes,Yes
0.7875,0.6,None,No,High,Medium,Male,No,High,No,No,Yes,No,Yes
0.65,0.55,High,Yes,Medium,Medium,Female,Yes,Medium,No,Yes,Yes,Yes,Yes
0.0625,0.833333,Medium,Yes,High,Low,Male,No,Low,No,Yes,Yes,No,Yes
0.9,0.495962,Medium,Yes,Medium,Low,Male,No,Medium,Yes,No,Yes,No,Yes
0.225,0.566667,None,No,High,Low,Male,No,High,No,Yes,No,Yes,Yes
0.875,0.2,High,Yes,Low,High,Male,No,High,No,Yes,No,No,Yes
0.7625,0.2,High,Yes,Medium,Medium,Male,Yes,Medium,No,No,No,No,Yes
0.25,0.216667,High,Yes,Low,Low,Male,Yes,Low,No,No,No,Yes,Yes
0.2375,0.85,High,No,Medium,Low,Male,Yes,Medium,No,Yes,Yes,No,Yes
0.625,0.2,Medium,Yes,Low,Medium,Female,Yes,Low,Yes,No,No,No,Yes
0.1875,0.783333,Medium,Yes,Low,Low,Female,No,Medium,Yes,No,Yes,No,Yes
0.1,0.033333,Low,No,Medium,Low,Male,No,Medium,No,Yes,No,No,Yes
0.4625,0.3,Low,Yes,High,Medium,Male,No,Medium,Yes,No,Yes,Yes,Yes
0.175,0.35,Low,No,Medium,High,Male,Yes,High,Yes,Yes,Yes,No,Yes
0.475,0.466667,Medium,No,High,Low,Male,Yes,High,No,Yes,No,Yes,Yes
0.45,0.283333,High,No,High,Low,Female,Yes,High,Yes,Yes,No,Yes,Yes
0.2,0.333333,High,Yes,Medium,High,Male,Yes,Medium,Yes,No,No,No,Yes
0.825,0.166667,High,No,High,Medium,Male,No,Low,Yes,No,No,Yes,Yes
0.4875,0.283333,None,No,Low,Low,Female,No,Medium,Yes,Yes,Yes,No,Yes
0.0625,0.2,Medium,No,Medium,Medium,Female,Yes,Medium,Yes,Yes,Yes,Yes,Yes
0.325,0.333333,None,No,High,Low,Female,No,High,No,No,No,Yes,Yes
0.1,0.366667,Medium,No,High,Medium,Female,No,Medium,Yes,Yes,Yes,No,Yes
0.125,0.033333,Low,Yes,Low,High,Female,Yes,High,Yes,No,No,No,Yes
0.725,0.033333,Medium,No,High,High,Male,No,High,No,No,Yes,Yes,Yes
0.0125,0.7,Medium,Yes,High,High,Female,Yes,Medium,Yes,Yes,Yes,Yes,Yes
0.5375,1,Low,Yes,High,High,Male,Yes,Low,No,No,No,Yes,Yes
0.825,0.05,None,Yes,High,Low,Female,Yes,High,Yes,No,Yes,No,Yes
0.35,0.15,None,Yes,Medium,Medium,Female,No,Medium,Yes,No,Yes,No,Yes
1,0.166667,None,No,High,High,Female,No,Medium,Yes,Yes,No,Yes,Yes
0.775,0.816667,Medium,No,Low,High,Female,No,Medium,Yes,Yes,No,No,Yes
0,0.283333,Low,No,High,Medium,Male,No,Low,No,Yes,Yes,Yes,Yes
0.725,0.016667,Medium,Yes,Low,High,Female,Yes,High,No,Yes,Yes,No,Yes
0.625,0.833333,High,Yes,Low,Low,Male,Yes,Medium,No,Yes,Yes,Yes,Yes
0.575,0.6,High,No,Low,Low,Male,No,Medium,No,Yes,Yes,No,Yes
0.1875,0.866667,Medium,No,Low,Medium,Female,No,Medium,No,No,No,Yes,Yes
0.25,0.066667,Medium,Yes,Medium,Low,Female,Yes,Medium,Yes,Yes,Yes,No,Yes
0.225,0.433333,Medium,No,Medium,High,Female,Yes,Medium,No,No,No,Yes,Yes
0.7625,0.666667,None,No,Low,Medium,Female,No,Low,No,No,Yes,Yes,Yes
0.4875,0.116667,Low,No,High,Medium,Male,Yes,High,Yes,No,No,Yes,Yes
0.825,0.716667,None,Yes,Medium,Medium,Male,Yes,Low,No,Yes,No,No,Yes
0.4875,0.816667,High,No,Low,Medium,Female,Yes,High,Yes,No,No,Yes,Yes
0.575,0.916667,Low,Yes,High,High,Male,Yes,Low,No,No,Yes,Yes,Yes
0.2875,0.883333,Low,Yes,Medium,Low,Female,No,Low,No,Yes,No,Yes,Yes
0.5375,0.45,High,Yes,Medium,Low,Male,Yes,Medium,Yes,No,Yes,Yes,Yes
0.9625,0,High,No,Medium,Medium,Female,No,High,Yes,No,Yes,No,Yes
0.2125,0.45,Low,No,Medium,High,Male,Yes,Low,No,No,No,No,Yes
0.35,0.833333,None,Yes,Medium,Low,Male,Yes,Medium,No,Yes,Yes,Yes,Yes
0.0875,0.083333,Low,No,Medium,High,Female,No,High,No,Yes,Yes,Yes,Yes
0.675,0.616667,None,Yes,Low,High,Male,Yes,Medium,Yes,Yes,Yes,No,Yes
0.65,0.633333,High,No,Medium,High,Male,No,Medium,Yes,No,No,No,Yes
0.6375,0.95,High,Yes,Medium,High,Male,Yes,High,No,No,Yes,No,Yes
0.4125,0.433333,High,No,Medium,Low,Male,Yes,Low,No,Yes,No,Yes,Yes
0.125,0.95,Medium,Yes,Medium,Low,Female,No,Medium,No,No,No,Yes,Yes
0.95,0.1,High,No,Low,Low,Female,No,Low,Yes,Yes,Yes,No,Yes
0.8375,0.45,Low,No,High,Low,Male,No,High,No,No,Yes,No,Yes
0.25,0.833333,Low,Yes,Low,High,Male,No,Low,Yes,Yes,Yes,Yes,Yes
0.725,0.75,None,Yes,Medium,Low,Female,Yes,Medium,Yes,Yes,Yes,No,Yes
0.9375,0.216667,High,No,High,High,Male,Yes,High,No,Yes,No,No,Yes
0.975,0.933333,Medium,Yes,Medium,Medium,Female,Yes,Low,Yes,Yes,Yes,No,Yes
0.35,0.983333,Low,No,High,High,Female,No,Medium,Yes,No,No,Yes,Yes
0.0125,0.533333,High,No,Medium,Low,Female,Yes,Medium,No,Yes,No,No,Yes
0.4625,0.25,High,No,Low,Low,Male,No,Medium,Yes,Yes,Yes,No,Yes
0.3625,0.566667,None,Yes,High,Low,Female,No,High,No,Yes,No,No,Yes
0.3,0.883333,None,Yes,Low,Low,Male,Yes,Low,Yes,Yes,No,No,Yes
0.8125,0.05,High,Yes,High,High,Female,No,High,No,Yes,Yes,Yes,Yes
0.3625,0.116667,None,Yes,High,High,Male,No,High,Yes,Yes,No,Yes,Yes
0.7625,0.616667,Medium,No,High,High,Female,Yes,Medium,No,Yes,No,Yes,Yes
0.6625,0.516667,None,No,Medium,Low,Female,No,High,Yes,Yes,Yes,Yes,Yes
0.2,0.216667,High,Yes,Low,Low,Female,No,Low,No,No,No,No,Yes
0.2125,0.566667,High,No,Low,Medium,Female,No,Medium,No,Yes,Yes,Yes,Yes
0.7375,0.1,Medium,Yes,Low,Low,Male,Yes,Medium,Yes,No,Yes,Yes,Yes
0.825,0.8,High,No,Medium,Low,Female,Yes,High,Yes,No,No,Yes,Yes
0.3125,0.516667,High,Yes,Low,Medium,Male,No,Low,No,No,No,No,Yes
0.8375,0.183333,Low,No,High,High,Male,No,High,No,Yes,No,No,Yes
0.425,0.533333,Medium,Yes,Low,Medium,Female,Yes,Medium,Yes,No,No,No,Yes
0.1125,0.783333,High,No,High,Low,Female,No,High,Yes,No,Yes,Yes,Yes
0.125,0.966667,High,No,Medium,Low,Female,No,High,Yes,No,Yes,Yes,Yes
0.3125,0.916667,Low,No,Medium,Low,Male,No,High,No,Yes,Yes,No,Yes
0.175,0.933333,High,Yes,Low,Medium,Female,No,Low,No,No,Yes,No,Yes
0.925,0.3,Low,Yes,Medium,High,Female,Yes,High,Yes,Yes,Yes,No,Yes
0.175,0.866667,High,No,High,High,Male,Yes,Medium,Yes,No,Yes,Yes,Yes
0.6375,0.5,Low,Yes,Medium,Low,Female,Yes,High,No,No,No,Yes,Yes
0.675,0.066667,Medium,Yes,Low,High,Female,Yes,Medium,Yes,No,No,Yes,Yes
0.6625,0.3,None,No,Medium,Medium,Female,No,Medium,Yes,No,No,Yes,Yes
0.675,0.866667,High,No,Medium,Medium,Female,No,High,No,Yes,Yes,Yes,Yes
0.1,0.983333,High,No,Medium,Medium,Male,Yes,High,Yes,No,No,No,Yes
0.6,0.883333,Low,Yes,High,Medium,Female,Yes,Medium,Yes,Yes,Yes,Yes,Yes
0.2875,0.383333,None,No,Medium,High,Female,Yes,High,No,No,Yes,No,Yes
0.7875,0.9,High,Yes,Medium,Low,Female,No,High,Yes,No,Yes,No,Yes
0.0375,0.333333,High,No,High,High,Female,No,Medium,No,No,Yes,No,Yes
0.3375,0.25,High,Yes,Low,High,Female,No,Low,No,No,Yes,Yes,Yes
0.0875,0.25,Low,No,Medium,Low,Female,Yes,Low,No,Yes,No,No,Yes
0.25,0.866667,None,Yes,Medium,High,Female,Yes,High,Yes,No,No,Yes,Yes
0.475,0.15,Low,No,High,Medium,Male,No,High,No,No,Yes,Yes,Yes
0.45,0.283333,High,No,High,Low,Female,Yes,High,Yes,Yes,No,Yes,Yes
0.8375,0.183333,Low,No,High,High,Male,No,High,No,Yes,No,No,Yes
0.7,0.483333,Low,No,High,High,Female,No,Medium,Yes,No,No,No,Yes
0.6625,0.3,None,No,Medium,Medium,Female,No,Medium,Yes,No,No,Yes,Yes
0.8375,0.083333,High,No,Medium,High,Male,No,Low,Yes,No,Yes,Yes,Yes
0.0875,0.233333,None,Yes,High,Low,Male,No,Low,No,Yes,No,Yes,Yes
0.7125,0.65,None,Yes,Medium,Low,Male,Yes,High,No,No,Yes,No,Yes
0.6375,0.95,High,Yes,Medium,High,Male,Yes,High,No,No,Yes,No,Yes
0.45,0.316667,Low,Yes,Low,Low,Male,No,Medium,Yes,No,No,No,Yes
0.15,0.75,High,No,Low,High,Male,Yes,Medium,Yes,Yes,No,No,Yes
0.85,0.716667,High,Yes,Medium,Low,Female,No,Medium,No,No,Yes,No,Yes
0.875,0.816667,None,Yes,Low,Low,Male,No,Medium,No,No,Yes,No,Yes
0.4875,0.916667,None,No,Low,Low,Female,Yes,Medium,No,Yes,No,Yes,Yes
0.675,0.416667,None,Yes,Low,Medium,Female,No,High,Yes,Yes,Yes,Yes,Yes
0.15,0.75,High,No,Low,High,Male,Yes,Medium,Yes,Yes,No,No,Yes
0.325,0.466667,Low,No,Medium,Low,Male,Yes,Medium,No,No,No,Yes,Yes
0.05,0.766667,None,Yes,Medium,Low,Female,No,High,Yes,No,Yes,No,Yes
0.975,0.85,High,Yes,Low,Medium,Female,No,Medium,No,No,Yes,No,Yes
0.225,0.366667,None,Yes,High,Low,Male,No,High,No,No,No,Yes,Yes
0.5125,0.8,None,Yes,High,Medium,Male,No,Medium,No,Yes,Yes,Yes,Yes
0.5375,1,High,Yes,Low,Medium,Male,Yes,Medium,No,Yes,Yes,Yes,Yes
0.45,0.516667,Low,No,High,Medium,Female,Yes,Low,No,No,No,No,Yes
0.1875,0.15,Low,No,Low,Low,Male,Yes,Medium,Yes,No,No,No,Yes
0.5625,0.216667,None,Yes,High,Low,Male,No,High,Yes,No,No,Yes,Yes
0.4125,0.35,High,Yes,High,Medium,Female,Yes,Medium,Yes,No,No,No,Yes
0.125,0.583333,None,No,Low,Low,Male,Yes,Low,Yes,Yes,Yes,Yes,Yes
0.4875,0.766667,Low,Yes,Medium,Low,Female,Yes,Medium,Yes,No,Yes,No,Yes
0.3625,0.75,Low,Yes,Low,Medium,Male,No,Low,Yes,No,Yes,No,Yes
0.0125,1,Medium,No,High,Low,Female,Yes,Low,No,Yes,No,No,Yes
0.8375,0.35,Medium,Yes,Low,High,Female,Yes,High,Yes,No,Yes,No,Yes
0.4625,0.266667,High,Yes,Medium,Medium,Male,Yes,Medium,No,No,No,No,Yes
0.5375,1,Low,Yes,High,High,Male,Yes,Low,No,No,No,Yes,Yes
0.9875,0.283333,Low,No,Low,Medium,Male,No,Low,Yes,Yes,Yes,No,Yes
0.3875,0.766667,None,No,High,High,Female,Yes,Medium,Yes,Yes,Yes,Yes,Yes
0.775,0.066667,High,Yes,Low,High,Male,No,Medium,Yes,Yes,Yes,No,Yes
0.7625,0.483333,None,Yes,Low,High,Female,No,Low,No,Yes,No,No,Yes
0.3,0.833333,None,Yes,High,Medium,Male,Yes,Medium,No,No,Yes,Yes,Yes
0.5,0.166667,Low,No,Medium,High,Female,No,Medium,Yes,Yes,Yes,Yes,Yes
0.3,0,High,Yes,High,High,Female,No,Medium,No,No,No,Yes,Yes
0.8875,0.283333,Medium,No,Medium,Low,Male,Yes,Low,Yes,Yes,Yes,Yes,Yes
0.6625,0.6,Medium,No,High,Medium,Female,No,Low,Yes,Yes,No,No,Yes
0.5,0.75,Medium,No,Medium,Medium,Male,No,Medium,Yes,Yes,Yes,No,Yes
0.9875,0.516667,None,Yes,Medium,Low,Male,No,Low,Yes,Yes,No,No,Yes
0.85,0.083333,Low,Yes,Medium,High,Female,No,Low,No,Yes,Yes,No,Yes
0.475,0.05,High,No,High,High,Male,Yes,Medium,No,Yes,Yes,Yes,Yes
0.175,0.383333,Medium,Yes,High,High,Female,No,Low,No,Yes,Yes,No,Yes
0.725,0,Low,Yes,Medium,High,Female,No,Low,No,No,Yes,No,Yes
0.8875,0.9,Low,No,High,High,Male,Yes,Low,No,No,Yes,No,Yes
0.975,0.5,None,No,High,High,Male,Yes,Low,Yes,Yes,No,Yes,Yes
0.45,0.266667,Low,Yes,Low,Medium,Male,No,Low,Yes,Yes,Yes,Yes,Yes
0.7625,0.633333,Low,No,Low,Medium,Female,Yes,Low,Yes,No,No,No,Yes
0.925,0.583333,High,No,High,Medium,Female,No,High,No,No,No,No,Yes
0.025,0.6,Medium,No,Low,Low,Female,Yes,Medium,Yes,Yes,No,No,Yes
0.0375,0.5,Medium,Yes,High,High,Male,No,Low,No,No,Yes,Yes,Yes
0.0625,0.383333,Medium,No,Low,High,Male,No,Low,Yes,No,No,Yes,Yes
0.0125,0.383333,Medium,No,Low,Medium,Female,Yes,Low,No,No,Yes,No,Yes
0.3,0.616667,High,No,Low,Low,Female,Yes,High,Yes,Yes,Yes,No,Yes
0.675,0.1,None,Yes,Low,High,Female,Yes,High,No,Yes,No,Yes,Yes
0.4125,0.783333,High,No,Medium,Low,Female,Yes,High,Yes,No,No,Yes,Yes
0.775,0.816667,Medium,No,Low,High,Female,No,Medium,Yes,Yes,No,No,Yes
0.4125,0.816667,Medium,Yes,Medium,High,Male,Yes,Medium,No,Yes,No,Yes,Yes
0.4875,0.666667,Medium,No,High,Low,Male,No,High,No,No,Yes,Yes,Yes
0.8125,0.883333,None,Yes,Medium,Low,Female,No,High,No,No,Yes,Yes,Yes
0.25,0.266667,None,No,Low,Medium,Female,No,High,No,Yes,No,Yes,Yes
0.2625,0.416667,None,No,Medium,Low,Female,No,High,Yes,Yes,No,Yes,Yes
0.1625,0.283333,Medium,No,High,High,Male,No,Medium,Yes,Yes,Yes,No,Yes
0.2625,0.55,Medium,Yes,Medium,Low,Female,Yes,Low,No,Yes,Yes,Yes,Yes
0.6625,0.6,Medium,No,High,Medium,Female,No,Low,Yes,Yes,No,No,Yes
0.55,0.566667,High,Yes,Medium,Medium,Female,No,Low,No,No,No,Yes,Yes
0.9375,0.333333,High,Yes,Medium,Medium,Male,Yes,Medium,Yes,Yes,No,No,Yes
0.2375,0.166667,Low,Yes,Low,Medium,Female,No,Medium,Yes,Yes,Yes,Yes,Yes
0.0625,0.65,None,No,Medium,Low,Female,No,Low,Yes,No,No,No,Yes
0.55,0.733333,None,No,Medium,High,Female,No,Medium,Yes,No,No,No,Yes
0.3125,0.1,High,Yes,Medium,High,Male,No,Low,No,No,Yes,No,Yes
0.55,0.366667,Low,No,Medium,Medium,Male,No,High,No,Yes,No,Yes,Yes
0.4,0.4,Low,Yes,High,High,Female,No,Medium,Yes,Yes,No,No,Yes
0.3125,0.9,High,Yes,High,High,Male,No,High,Yes,Yes,No,Yes,Yes
0.4875,0.266667,Medium,Yes,Medium,High,Female,Yes,Medium,Yes,No,No,Yes,Yes
0.95,0.15,Low,Yes,Medium,Medium,Male,No,Medium,No,Yes,No,Yes,Yes
1,0.833333,High,Yes,Medium,Low,Female,Yes,Low,Yes,Yes,Yes,No,Yes
0.8875,0.466667,None,Yes,High,High,Male,Yes,High,No,Yes,Yes,Yes,Yes
0.1125,0.35,None,Yes,High,Low,Male,No,Low,No,Yes,No,Yes,Yes
0.025,0.75,High,Yes,Medium,Low,Male,Yes,High,No,Yes,No,No,Yes
0.95,0.966667,Low,Yes,Low,Low,Male,Yes,Medium,Yes,Yes,Yes,No,Yes
0.3125,0.15,Low,No,Low,High,Male,No,Medium,Yes,Yes,Yes,No,Yes
0.175,0.866667,High,No,High,High,Male,Yes,Medium,Yes,No,Yes,Yes,Yes
0.85,0.916667,Low,Yes,Medium,High,Male,No,Low,No,Yes,No,No,Yes
0.725,0.116667,Medium,Yes,Low,Medium,Female,Yes,High,Yes,Yes,No,No,Yes
0.1125,0.783333,High,No,High,Low,Female,No,High,Yes,No,Yes,Yes,Yes
0.2875,0.183333,None,Yes,Low,Medium,Female,Yes,Low,No,Yes,Yes,Yes,Yes
0.05,0.083333,None,Yes,Medium,Low,Male,No,High,No,No,No,No,Yes
0.4125,0.35,None,Yes,Medium,High,Female,No,High,Yes,No,No,No,Yes
0.5625,0.75,Medium,No,High,High,Female,Yes,High,Yes,No,No,No,Yes
0.6875,0.85,Low,Yes,High,High,Female,No,High,No,No,Yes,Yes,Yes
0.325,0.15,High,No,Low,Medium,Female,Yes,Medium,No,No,Yes,No,Yes
0.8625,0.766667,High,No,Medium,High,Female,Yes,Low,Yes,No,No,No,Yes
0.2625,0.116667,Low,Yes,Low,Medium,Male,Yes,Low,No,Yes,No,Yes,Yes
0.7625,0.1,High,No,Low,Medium,Male,Yes,Medium,Yes,Yes,Yes,No,Yes
0.525,0.55,None,Yes,Low,Medium,Male,No,High,No,Yes,No,Yes,Yes
0.1125,0.15,Low,No,High,Low,Male,Yes,Low,Yes,Yes,No,No,Yes
0.6375,1,High,Yes,High,High,Male,Yes,Medium,No,No,No,Yes,Yes
0.2375,0.116667,High,No,Low,Low,Female,No,Low,No,No,No,No,Yes
0.8625,0.283333,None,Yes,Medium,High,Male,Yes,Low,Yes,No,Yes,Yes,Yes
0.7875,0.8,Low,No,Medium,High,Female,No,Medium,No,No,Yes,No,Yes
0.4625,0.416667,None,Yes,Medium,Medium,Female,No,Medium,No,Yes,Yes,No,Yes
0.3875,0.9,High,Yes,Medium,High,Male,Yes,High,Yes,No,No,Yes,Yes
0.65,0,High,No,Medium,Low,Male,No,Low,Yes,Yes,No,No,Yes
0.15,0.833333,Medium,No,High,High,Female,Yes,Low,No,Yes,No,Yes,Yes
0.8125,0.483333,High,Yes,Medium,Low,Male,No,Medium,No,No,Yes,No,Yes
1,0.633333,None,No,Low,Medium,Female,No,High,Yes,Yes,No,Yes,Yes
0.3125,0.15,Low,No,Low,High,Male,No,Medium,Yes,Yes,Yes,No,Yes
0.0625,0.466667,Low,No,Low,High,Female,No,Medium,Yes,Yes,Yes,Yes,Yes
0.1875,0.166667,None,Yes,High,High,Male,No,Medium,Yes,No,No,Yes,Yes
0.775,0.083333,Low,Yes,High,Medium,Male,Yes,High,No,Yes,Yes,Yes,Yes
0.45,0.1,Low,Yes,High,Low,Male,Yes,High,No,Yes,No,Yes,Yes
0.9875,0.95,High,No,High,Medium,Female,No,High,Yes,Yes,No,Yes,Yes
0.5375,0.3,High,No,Low,Medium,Female,Yes,Low,No,No,Yes,Yes,Yes
0.1,0.383333,None,No,Low,Low,Female,Yes,High,Yes,Yes,Yes,No,Yes
0.875,0.266667,Medium,Yes,Low,Medium,Male,Yes,Low,No,Yes,Yes,Yes,Yes
0.45,0.533333,High,No,Medium,High,Female,No,Medium,Yes,Yes,No,No,Yes
0.725,0.583333,None,Yes,Low,High,Female,Yes,Low,Yes,No,Yes,No,Yes
0.825,0.766667,Low,No,Medium,Low,Female,Yes,Medium,No,No,Yes,No,Yes
0.9125,0.45,Low,No,Low,Low,Male,No,High,Yes,No,Yes,Yes,Yes
0.8,0.9,High,Yes,Low,Low,Female,No,Low,No,No,No,Yes,Yes
0.1625,0.483333,Medium,Yes,Low,Medium,Female,Yes,Medium,Yes,Yes,No,Yes,Yes
0.1625,0.533333,High,No,Medium,High,Male,No,High,Yes,No,Yes,Yes,Yes
0.7125,0.766667,Low,No,High,Low,Female,Yes,Medium,Yes,Yes,Yes,No,Yes
0.1125,0.05,Medium,Yes,Medium,High,Male,Yes,Medium,No,No,Yes,No,Yes
0.9875,0.1,High,Yes,Medium,High,Male,No,Low,No,Yes,Yes,No,Yes
0.95,0.266667,High,Yes,Medium,Low,Male,No,High,Yes,Yes,Yes,Yes,Yes
0.1125,0.016667,High,Yes,High,Medium,Male,No,Low,Yes,No,Yes,No,Yes
0.725,0.016667,Medium,Yes,Low,High,Female,Yes,High,No,Yes,Yes,No,Yes
0.1375,0.1,Low,Yes,Low,Medium,Female,Yes,High,No,Yes,No,Yes,Yes
0.7,0.766667,High,No,Medium,Medium,Female,No,Medium,No,Yes,Yes,No,Yes
0.95,0.266667,High,Yes,Medium,Low,Male,No,High,Yes,Yes,Yes,Yes,Yes
0.6625,0.383333,Low,Yes,High,Low,Male,No,Medium,Yes,Yes,Yes,Yes,Yes
0.95,0.883333,Low,Yes,Medium,Medium,Female,No,Low,Yes,Yes,Yes,No,Yes
0.7875,0.3,Low,No,High,Medium,Male,No,High,Yes,No,Yes,Yes,Yes
0.7625,0.416667,High,No,Low,Medium,Female,No,Medium,Yes,No,Yes,Yes,Yes
0.9125,0.2,None,Yes,Medium,High,Male,Yes,Medium,No,No,No,Yes,Yes
0,0.85,None,Yes,Medium,Medium,Male,Yes,Low,Yes,Yes,Yes,Yes,Yes
0.575,0.6,High,No,Low,Low,Male,No,Medium,No,Yes,Yes,No,Yes
0.6625,0.383333,Low,Yes,High,Low,Male,No,Medium,Yes,Yes,Yes,Yes,Yes
0.475,0.383333,None,No,High,Low,Female,Yes,High,No,No,No,Yes,Yes
0.35,0.833333,None,Yes,Medium,Low,Male,Yes,Medium,No,Yes,Yes,Yes,Yes
0.6,0.133333,None,No,Medium,Low,Female,No,Medium,No,No,Yes,Yes,Yes
0.7875,0.3,None,Yes,Medium,Low,Female,Yes,High,Yes,Yes,Yes,No,Yes
0.8375,0.683333,High,No,Medium,Low,Female,No,Low,No,No,Yes,Yes,Yes
0.3,0.95,None,Yes,Low,Medium,Female,Yes,Low,No,Yes,No,Yes,Yes
0.4,0.666667,Low,Yes,Low,High,Male,Yes,Low,Yes,Yes,Yes,Yes,Yes
0.3125,0.416667,Low,Yes,High,Medium,Male,Yes,High,Yes,No,No,Yes,Yes
0.875,0.516667,None,Yes,High,Medium,Female,No,Medium,No,Yes,No,No,Yes
0.9875,0.866667,High,No,Medium,Low,Male,No,High,Yes,No,Yes,Yes,Yes
0.3,0.3,None,No,High,Medium,Female,Yes,Low,Yes,No,No,Yes,Yes
0.8125,0.55,Low,No,Low,Low,Female,Yes,Medium,Yes,No,No,No,Yes
0.275,0.516667,None,No,High,Medium,Male,No,High,Yes,Yes,Yes,No,Yes
0.025,0.266667,None,Yes,Low,Medium,Female,No,Low,Yes,Yes,No,No,Yes
0.85,0.133333,None,No,Low,Low,Female,Yes,Low,Yes,No,Yes,Yes,Yes
0.7125,0.95,None,No,Medium,Low,Male,Yes,Medium,Yes,Yes,No,No,Yes
0.95,0.35,High,No,Medium,Medium,Male,Yes,High,No,Yes,Yes,No,Yes
0.6125,1,Low,Yes,Medium,Medium,Female,No,High,Yes,No,Yes,No,Yes
0.8625,0.116667,High,No,High,Medium,Female,Yes,Low,No,Yes,Yes,No,Yes
0.3125,0.233333,Medium,No,High,High,Female,Yes,High,No,No,No,No,Yes
0.2875,0.366667,Low,Yes,Low,High,Male,Yes,High,No,No,No,No,Yes
0.475,0.166667,Medium,No,Low,Medium,Male,Yes,High,No,No,No,Yes,Yes
0.3125,0.416667,Low,Yes,High,Medium,Male,Yes,High,Yes,No,No,Yes,Yes
0.1125,0.116667,None,Yes,Medium,High,Male,Yes,High,No,Yes,Yes,Yes,Yes
0.9625,0.05,High,No,High,Low,Male,No,Medium,Yes,No,No,No,Yes
0.075,1,None,No,High,High,Male,Yes,Low,No,No,Yes,Yes,Yes
0.75,0.15,Medium,No,Low,Medium,Male,Yes,High,No,Yes,Yes,No,Yes
0.7375,0.883333,Medium,No,High,Low,Female,No,Medium,Yes,Yes,No,Yes,Yes
0.8,0.266667,None,Yes,Medium,Low,Female,Yes,High,Yes,No,Yes,No,Yes
0.8,0.633333,High,No,Medium,High,Male,No,Low,Yes,Yes,Yes,No,Yes
0.95,0.633333,Low,Yes,High,High,Male,No,Medium,No,Yes,Yes,No,Yes
0.075,1,None,No,High,High,Male,Yes,Low,No,No,Yes,Yes,Yes
0.85,0.766667,High,No,High,High,Male,No,Low,No,No,No,Yes,Yes
0.275,0.416667,Medium,Yes,Medium,Medium,Male,No,High,Yes,Yes,Yes,No,Yes
0.125,0.133333,Medium,No,Low,High,Female,Yes,High,No,No,Yes,Yes,Yes
0,0.283333,None,No,Low,Low,Female,Yes,High,Yes,Yes,No,Yes,Yes
0.0125,1,Medium,Yes,Medium,Low,Male,Yes,Medium,No,Yes,Yes,Yes,Yes
0.725,0.233333,None,No,Medium,Medium,Male,Yes,High,Yes,Yes,No,No,Yes
0.7,0.983333,High,Yes,High,High,Male,No,Medium,No,Yes,No,Yes,Yes
0.6,0.7,Low,No,Low,Medium,Female,No,High,Yes,No,Yes,Yes,Yes
0.0375,0.866667,None,Yes,High,Low,Male,No,Medium,No,No,Yes,No,Yes
0.475,0.85,Low,No,Medium,Low,Female,No,Medium,No,No,Yes,Yes,Yes
0.2875,0.15,High,No,High,Medium,Female,No,Medium,Yes,Yes,No,Yes,Yes
0.7875,0.8,Low,No,Medium,High,Female,No,Medium,No,No,Yes,No,Yes
0.975,0.116667,Low,Yes,Medium,Medium,Female,No,Low,No,No,Yes,Yes,Yes
0.4625,0.783333,Low,No,High,High,Female,No,Medium,Yes,Yes,No,Yes,Yes
0.2125,0.766667,High,Yes,High,Low,Male,Yes,Medium,Yes,Yes,Yes,Yes,Yes
0.5125,0.633333,High,No,High,Medium,Female,No,High,Yes,Yes,No,Yes,Yes
0.4,0.216667,Medium,No,Low,Low,Female,Yes,Low,Yes,No,No,Yes,Yes
0.65,0.85,High,No,Low,Medium,Female,No,High,No,No,No,Yes,Yes
0.9375,0.35,Low,Yes,Medium,Medium,Male,No,Low,Yes,Yes,No,Yes,Yes
0.4125,0.35,None,Yes,Medium,High,Female,No,High,Yes,No,No,No,Yes
0.5125,0.266667,High,Yes,High,High,Male,No,High,Yes,No,No,Yes,Yes
0.025,0.583333,Medium,Yes,Low,Low,Male,Yes,Low,Yes,Yes,Yes,No,Yes
0.9125,0.55,None,Yes,Low,Medium,Male,No,Medium,Yes,No,Yes,Yes,Yes
0.5375,0.583333,None,Yes,Low,Medium,Male,No,High,Yes,No,No,Yes,Yes
0.3,0.75,Medium,No,High,Low,Male,No,High,Yes,Yes,Yes,Yes,Yes
0.4125,0.2,None,No,Low,High,Male,Yes,Medium,No,Yes,Yes,Yes,Yes
0.075,0.2,High,Yes,Low,Medium,Male,Yes,High,Yes,Yes,Yes,No,Yes
0.625,0.9,None,Yes,High,High,Male,Yes,Medium,No,No,No,Yes,Yes
0.0875,0.233333,None,Yes,High,Low,Male,No,Low,No,Yes,No,Yes,Yes
0.625,0.866667,Medium,No,Medium,High,Female,Yes,Low,No,No,Yes,Yes,Yes
0.575,0.35,High,No,Medium,Medium,Male,No,High,No,No,No,Yes,Yes
0.8625,0.7,None,Yes,High,High,Female,Yes,High,Yes,No,No,Yes,Yes
0.7875,0.283333,High,Yes,High,Low,Female,No,High,Yes,Yes,No,Yes,Yes
0.9375,0.783333,None,No,Low,High,Female,No,Low,No,Yes,Yes,No,Yes
0.275,0.616667,High,Yes,Low,Medium,Male,No,Medium,Yes,No,Yes,No,Yes
0.525,0.55,Low,No,Low,Low,Male,Yes,High,Yes,No,Yes,No,Yes
0.9,0.516667,Medium,Yes,Medium,High,Male,Yes,High,No,No,Yes,Yes,Yes
0.9125,0.416667,Low,No,Medium,Medium,Male,Yes,Low,No,No,No,No,Yes
0.1,0.533333,Low,Yes,Medium,Low,Male,No,Medium,Yes,No,No,Yes,Yes
0.2625,0.583333,None,Yes,Low,Medium,Female,No,High,Yes,No,No,No,Yes
0.8625,0.183333,Low,Yes,High,High,Female,No,Low,No,No,Yes,Yes,Yes
0.35,0.183333,None,No,High,Medium,Female,No,Low,Yes,No,Yes,Yes,Yes
0.85,0.366667,None,Yes,High,Low,Male,No,Low,Yes,No,Yes,Yes,Yes
0.2625,0.533333,Medium,Yes,Medium,Low,Male,No,Low,Yes,Yes,Yes,No,Yes
0.925,0.366667,None,Yes,Low,High,Female,Yes,Low,No,Yes,Yes,No,Yes
0.1625,0.233333,None,Yes,Low,Low,Female,No,Low,No,Yes,Yes,Yes,Yes
0.6,0.716667,Low,No,Low,High,Female,No,Low,No,Yes,No,Yes,Yes
0.6375,0.016667,Medium,No,Low,Medium,Male,Yes,Low,No,No,Yes,Yes,Yes
0.9125,0.366667,Low,Yes,Low,Low,Female,No,Medium,No,No,Yes,No,Yes
0.925,0.7,Medium,Yes,High,Medium,Male,Yes,Low,No,No,No,No,Yes
1,0.4,Low,Yes,Low,High,Female,No,High,No,Yes,Yes,No,Yes
0.2875,0.2,High,Yes,High,Low,Male,Yes,Medium,No,No,Yes,Yes,Yes
0.25,0.516667,Low,Yes,High,Low,Male,Yes,Medium,Yes,Yes,Yes,No,Yes
0.3625,0.316667,High,Yes,Medium,Low,Female,No,High,Yes,Yes,No,Yes,Yes
0.2125,0.6,High,No,Medium,Medium,Female,No,Medium,No,Yes,No,Yes,Yes
0.7375,0.016667,Low,Yes,Low,Medium,Female,Yes,Low,No,No,No,No,Yes
0.1375,0.316667,None,Yes,High,High,Female,Yes,High,Yes,Yes,No,No,Yes
0.1625,0.816667,None,No,Low,Low,Female,No,Low,Yes,No,Yes,No,Yes
0.9125,0,High,No,High,Low,Female,Yes,Medium,No,No,Yes,No,Yes
0.8,0.916667,High,No,High,Low,Female,Yes,High,Yes,Yes,Yes,Yes,Yes
0.0125,0.716667,None,Yes,High,High,Male,No,Low,No,No,No,No,Yes
0.625,0.916667,Medium,Yes,Low,Low,Male,Yes,Low,Yes,No,No,No,Yes
0.075,1,Medium,Yes,Low,Medium,Female,No,Low,No,No,No,Yes,Yes
0.05,0.216667,Medium,Yes,Low,High,Female,No,Low,Yes,No,Yes,No,Yes
0.2625,0.466667,High,Yes,Medium,Medium,Female,No,Low,Yes,Yes,No,Yes,Yes
0.1375,0.166667,None,No,High,High,Female,Yes,Medium,Yes,Yes,No,No,Yes
0.575,0.333333,Medium,No,High,Low,Female,Yes,Medium,Yes,No,Yes,Yes,Yes
0.0125,0.5,None,Yes,High,High,Female,Yes,High,Yes,Yes,Yes,Yes,Yes
0.1,0.2,High,Yes,High,Low,Male,No,High,Yes,No,Yes,Yes,Yes
0.4375,0.683333,Medium,No,Medium,Low,Female,Yes,Medium,Yes,Yes,Yes,No,Yes
0.4,0.766667,High,No,Low,Medium,Male,No,High,No,No,Yes,No,Yes
0.4625,0.933333,Medium,Yes,Medium,High,Male,Yes,High,Yes,No,Yes,No,Yes
0.7,0.933333,High,Yes,Low,Low,Female,No,Low,Yes,No,No,Yes,Yes
0.3125,0.133333,Low,Yes,High,Low,Female,No,High,Yes,Yes,No,No,Yes
0.3875,0.9,High,Yes,Medium,High,Male,Yes,High,Yes,No,No,Yes,Yes
0.925,0.083333,High,Yes,Medium,Medium,Female,Yes,Medium,No,Yes,No,No,Yes
0.75,0.033333,Low,No,Medium,Medium,Female,No,Medium,No,No,Yes,No,Yes
0.025,0.533333,High,No,Low,Medium,Female,Yes,Low,Yes,Yes,Yes,No,Yes
0.6875,0.9,Low,Yes,Low,High,Male,No,Medium,No,Yes,Yes,Yes,Yes
0.1875,0.966667,Low,No,High,Medium,Female,No,Low,Yes,No,No,No,Yes
0.325,0.083333,High,Yes,Medium,Low,Female,No,Low,No,Yes,No,No,Yes
0.475,0.216667,None,Yes,Low,Low,Male,No,High,No,No,Yes,Yes,Yes
0.925,0.65,Medium,Yes,Low,High,Female,Yes,Low,No,No,Yes,No,Yes
0.7,0.066667,Low,No,High,High,Male,Yes,Medium,No,Yes,No,Yes,Yes
0.7375,0.783333,None,Yes,High,Low,Male,No,Medium,Yes,Yes,No,Yes,Yes
0.325,0.766667,Medium,Yes,High,Low,Male,Yes,Low,No,Yes,Yes,No,Yes
0.875,0.166667,Medium,No,High,High,Male,Yes,High,Yes,Yes,Yes,No,Yes
0.45,0.116667,Medium,No,Medium,Low,Male,Yes,Low,No,No,No,No,Yes
0.3125,0.666667,None,No,Low,Low,Female,No,High,No,No,Yes,Yes,Yes
0.9375,0.816667,High,No,Medium,Medium,Male,Yes,High,Yes,No,Yes,No,Yes
0.15,0.816667,Medium,Yes,Medium,Low,Female,No,Low,Yes,Yes,No,No,Yes
0.9625,0.05,High,No,High,Low,Male,No,Medium,Yes,No,No,No,Yes
0.7,0.933333,High,Yes,Low,Low,Female,No,Low,Yes,No,No,Yes,Yes
0.2875,0.35,None,Yes,Low,Low,Female,No,Medium,Yes,No,Yes,Yes,Yes
0.225,0.55,Medium,Yes,Low,High,Female,Yes,Medium,Yes,Yes,No,No,Yes
0.85,0.666667,Low,No,Medium,Medium,Male,Yes,Low,Yes,Yes,Yes,Yes,Yes
0.125,0.133333,Medium,Yes,High,High,Female,No,Low,Yes,No,No,No,Yes
0.2125,0.216667,High,No,High,Low,Male,Yes,Medium,Yes,No,No,Yes,Yes
0.3375,0.033333,Low,No,High,High,Male,No,Low,No,No,Yes,Yes,Yes
0.0125,0.183333,High,No,Medium,Low,Male,No,High,Yes,Yes,No,No,Yes
0.7125,0.2,High,Yes,High,Medium,Female,Yes,High,No,No,Yes,No,Yes
0.075,0.283333,Medium,No,High,Low,Female,Yes,Medium,No,No,Yes,Yes,Yes
0.5125,0.883333,Low,No,High,Low,Male,No,High,Yes,Yes,No,Yes,Yes
0.1,0.4,None,No,High,Low,Male,No,Low,Yes,No,Yes,No,Yes
0.9,0.883333,High,No,Medium,Medium,Male,No,Medium,Yes,No,No,No,Yes
0.325,0.966667,Medium,Yes,Medium,Low,Female,No,Medium,No,No,Yes,No,Yes
0.1125,0.966667,Low,Yes,High,High,Male,No,Low,Yes,Yes,Yes,Yes,Yes
0.1125,0.666667,High,Yes,Low,High,Female,No,Medium,No,No,No,Yes,Yes
0.8,0.683333,Low,Yes,Low,Low,Male,No,High,Yes,Yes,No,No,Yes
0.7625,0.483333,None,Yes,Low,High,Female,No,Low,No,Yes,No,No,Yes
0.1625,0.483333,Medium,Yes,Low,Medium,Female,Yes,Medium,Yes,Yes,No,Yes,Yes
0.7,0.716667,High,No,High,Medium,Female,Yes,Medium,Yes,Yes,No,Yes,Yes
0.825,0.583333,Medium,Yes,Medium,High,Male,No,High,Yes,No,Yes,Yes,Yes
0.4375,0.166667,None,No,Low,High,Male,Yes,Medium,Yes,Yes,No,No,Yes
0.4125,0.816667,Medium,Yes,Medium,High,Male,Yes,Medium,No,Yes,No,Yes,Yes
0.425,0.433333,Low,Yes,Medium,High,Male,Yes,High,No,No,Yes,No,Yes
0.25,0.833333,Low,Yes,Low,High,Male,No,Low,Yes,Yes,Yes,Yes,Yes
0.475,0.55,Low,No,High,High,Female,No,Low,No,Yes,No,Yes,Yes
0.9375,0.783333,None,Yes,High,High,Female,No,Medium,No,No,Yes,No,Yes
0.9375,0.35,Low,Yes,Medium,Medium,Male,No,Low,Yes,Yes,No,Yes,Yes
0.9375,0.733333,Medium,Yes,Medium,Medium,Male,Yes,Medium,Yes,Yes,No,No,Yes
0.7,0.266667,None,No,High,High,Male,Yes,Medium,No,No,No,No,Yes
0.8,0.416667,High,No,Medium,Medium,Male,Yes,High,No,No,No,Yes,Yes
0.625,0.883333,Low,No,High,High,Male,Yes,High,No,No,No,Yes,Yes
0.3625,0.633333,None,Yes,Medium,Low,Female,Yes,Medium,Yes,No,Yes,Yes,Yes
0.3625,0.966667,None,No,Medium,Medium,Female,No,High,No,No,No,Yes,Yes
0.6375,0.183333,Low,Yes,Medium,High,Male,Yes,Low,Yes,No,No,Yes,Yes
0.275,0.166667,Medium,Yes,High,Medium,Female,No,High,Yes,Yes,No,No,Yes
0.3625,0.766667,None,Yes,Low,Low,Male,No,High,No,No,Yes,No,Yes
0.1375,0.9,None,Yes,Medium,Low,Female,Yes,Medium,No,No,No,No,Yes
0.825,0.766667,Low,No,Medium,Low,Female,Yes,Medium,No,No,Yes,No,Yes
0.8625,0.85,High,Yes,High,Medium,Male,Yes,High,Yes,No,No,No,Yes
0.025,0.183333,High,Yes,High,Medium,Male,Yes,High,Yes,No,Yes,Yes,Yes
0.5625,0.216667,None,Yes,High,Low,Male,No,High,Yes,No,No,Yes,Yes
0.3375,0.966667,High,No,Medium,Low,Female,Yes,High,Yes,Yes,Yes,Yes,Yes
0.7125,0.766667,Low,No,High,Low,Female,Yes,Medium,Yes,Yes,Yes,No,Yes
0.1875,0.2,None,Yes,Medium,Medium,Female,Yes,Low,No,No,Yes,Yes,Yes
0.9,0.216667,None,No,Low,Medium,Female,Yes,High,Yes,No,No,No,Yes
0.725,0.366667,None,Yes,High,High,Female,Yes,High,No,No,No,Yes,Yes
0.825,0.333333,None,Yes,Low,Medium,Female,No,High,Yes,Yes,No,No,Yes
0.95,0.583333,High,No,Low,Low,Male,Yes,Medium,No,No,Yes,Yes,Yes
0.1,0.516667,Low,No,High,Low,Female,Yes,Medium,No,No,Yes,Yes,Yes
0.85,0.033333,Low,No,Medium,High,Male,No,Low,Yes,Yes,No,No,Yes
0.325,0.466667,Low,No,Medium,Low,Male,Yes,Medium,No,No,No,Yes,Yes
0.225,0.216667,Low,Yes,High,High,Female,Yes,High,Yes,Yes,No,No,Yes
0.175,0.083333,High,Yes,Low,Medium,Male,No,Low,Yes,No,No,Yes,Yes
0.0375,0.116667,Medium,No,Medium,Medium,Male,No,High,Yes,Yes,No,No,Yes
0.825,0.783333,High,Yes,Low,Low,Female,No,Low,Yes,No,Yes,Yes,Yes
0.25,0.983333,Low,No,High,Low,Female,No,Low,Yes,Yes,Yes,Yes,Yes
0.4875,0.016667,Low,Yes,Low,Medium,Female,No,High,Yes,No,No,Yes,Yes
0.7375,0.1,Medium,Yes,Low,Low,Male,Yes,Medium,Yes,No,Yes,Yes,Yes
0.475,0.266667,Medium,No,Low,Medium,Male,No,Medium,Yes,No,Yes,No,Yes
0.9875,1,High,Yes,Medium,High,Female,No,Medium,Yes,Yes,No,Yes,Yes
0.7125,0.316667,Medium,Yes,Medium,Medium,Female,No,Low,Yes,Yes,Yes,Yes,Yes
0.5125,0.833333,Medium,No,High,Low,Female,Yes,Low,Yes,No,Yes,Yes,Yes
0.925,0.266667,High,No,High,Low,Female,No,Low,Yes,Yes,Yes,No,Yes
0.2125,0.166667,High,No,Low,Low,Male,Yes,High,No,Yes,No,Yes,Yes
0.4375,0.283333,High,No,Low,Low,Male,No,Low,Yes,Yes,No,Yes,Yes
0,0.283333,None,No,Low,Low,Female,Yes,High,Yes,Yes,No,Yes,Yes
0.6875,0.6,Medium,Yes,Medium,Low,Male,Yes,High,Yes,Yes,No,No,Yes
0.2625,0.416667,None,No,Medium,Low,Female,No,High,Yes,Yes,No,Yes,Yes
0.775,0.466667,Medium,No,Medium,High,Male,No,High,No,No,Yes,No,Yes
0.875,0.166667,Medium,No,High,High,Male,Yes,High,Yes,Yes,Yes,No,Yes
0.1,0.25,Low,No,Medium,Low,Female,No,Low,Yes,No,Yes,No,Yes
0.975,0.25,Low,Yes,Medium,Low,Female,No,High,Yes,Yes,No,Yes,Yes
0.275,0.233333,Low,No,Low,Low,Male,No,Medium,No,No,Yes,Yes,Yes
0.8125,0.75,Low,Yes,Low,Medium,Female,Yes,High,Yes,Yes,No,Yes,Yes
0.625,0.033333,High,No,Low,High,Male,No,Medium,No,Yes,No,No,Yes
0.8875,0.283333,Medium,No,Medium,Low,Male,Yes,Low,Yes,Yes,Yes,Yes,Yes
0.925,0.05,Low,Yes,High,High,Male,Yes,Low,No,Yes,Yes,Yes,Yes
0.9375,0.4,High,Yes,High,High,Female,Yes,High,No,Yes,No,No,Yes
0.075,0.416667,Low,No,Low,High,Male,Yes,High,Yes,No,No,No,Yes
0.8875,0.5,Medium,No,Medium,High,Female,Yes,Medium,No,No,Yes,Yes,Yes
0.8125,0.45,Low,Yes,Low,High,Female,Yes,Low,Yes,Yes,No,Yes,Yes
0.3375,0.116667,None,No,Medium,High,Female,Yes,Low,Yes,Yes,No,Yes,Yes
0.125,0.166667,None,No,High,High,Female,No,Medium,Yes,No,Yes,Yes,Yes
0.925,0.583333,High,No,High,Medium,Female,No,High,No,No,No,No,Yes
0.9125,0.766667,Low,Yes,High,Low,Female,Yes,High,No,No,No,No,Yes
0.7125,0.216667,None,No,High,High,Male,Yes,Low,Yes,Yes,Yes,No,Yes
0.0625,0.466667,Low,No,Low,High,Female,No,Medium,Yes,Yes,Yes,Yes,Yes
0.675,0.183333,None,Yes,Medium,High,Male,Yes,High,No,No,Yes,No,Yes
0.8375,0.133333,Medium,Yes,High,Medium,Male,Yes,High,Yes,No,No,No,Yes
0.175,0.183333,None,Yes,Medium,High,Female,Yes,High,Yes,No,Yes,Yes,Yes
0.0125,0.983333,Medium,No,High,Medium,Male,No,High,Yes,No,Yes,No,Yes
0.725,0.5,None,No,Medium,Low,Male,Yes,Medium,Yes,No,Yes,Yes,Yes
0.325,0.25,Medium,Yes,Low,Medium,Female,No,High,No,No,Yes,Yes,Yes
0.7625,0.783333,None,Yes,Medium,Medium,Female,No,High,Yes,Yes,Yes,No,Yes
0.4,0.85,Low,No,Low,Low,Male,Yes,Low,No,No,No,Yes,Yes
0.35,0.35,High,No,Low,Medium,Female,No,Medium,No,Yes,Yes,No,Yes
0.025,0.233333,None,No,Medium,Medium,Female,No,High,No,No,No,No,Yes
0.95,0.016667,Low,No,Low,Low,Female,No,Medium,Yes,No,Yes,No,Yes
0.825,0.45,High,No,High,High,Female,Yes,High,No,Yes,No,Yes,Yes
0.6,0.483333,Low,No,Low,Medium,Male,Yes,Low,No,No,No,No,Yes
0.625,0.9,None,Yes,High,High,Male,Yes,Medium,No,No,No,Yes,Yes
0.9625,0.2,High,Yes,Medium,High,Male,Yes,Low,Yes,No,No,Yes,Yes
0.15,1,None,Yes,Low,Medium,Female,No,Low,No,No,Yes,Yes,Yes
0.35,0.5,High,No,Medium,Medium,Male,Yes,Medium,Yes,Yes,Yes,No,Yes
0.25,0.383333,Low,Yes,Low,Low,Male,Yes,Low,Yes,Yes,No,Yes,Yes
0.675,0.183333,None,Yes,Medium,High,Male,Yes,High,No,No,Yes,No,Yes
0.4125,0.783333,High,No,Medium,Low,Female,Yes,High,Yes,No,No,Yes,Yes
1,0.2,Low,No,Medium,Medium,Female,No,Low,No,Yes,Yes,No,Yes
0.5,0.166667,Low,No,Medium,High,Female,No,Medium,Yes,Yes,Yes,Yes,Yes
0.2125,0.816667,High,No,Low,Low,Female,Yes,Medium,Yes,Yes,No,No,Yes
0.35,0.316667,High,Yes,Low,Low,Female,No,Medium,Yes,Yes,No,Yes,Yes
0.2,0.133333,None,Yes,Medium,Low,Male,No,Low,Yes,Yes,Yes,Yes,Yes
0.0625,0.65,High,Yes,Medium,High,Male,No,High,No,Yes,No,Yes,Yes
0.7625,0.116667,High,Yes,High,Medium,Male,No,Medium,Yes,No,Yes,Yes,Yes
1,0.166667,None,No,High,High,Female,No,Medium,Yes,Yes,No,Yes,Yes
0.5125,0.883333,High,No,Medium,Medium,Female,No,High,Yes,No,No,No,Yes
0.6375,0.95,None,No,Low,Medium,Female,No,Low,Yes,No,Yes,No,Yes
0.125,0.866667,Medium,No,Medium,High,Male,Yes,Low,No,Yes,Yes,No,Yes
0.85,0.083333,Low,Yes,Medium,High,Female,No,Low,No,Yes,Yes,No,Yes
0.975,0.45,High,Yes,Low,High,Female,Yes,Medium,No,Yes,Yes,Yes,Yes
0.0375,0.116667,Medium,No,Medium,Medium,Male,No,High,Yes,Yes,No,No,Yes
0.25,0.833333,Low,Yes,Low,High,Male,No,Low,Yes,Yes,Yes,Yes,Yes
0.875,0.116667,Medium,Yes,Medium,Medium,Female,Yes,High,Yes,Yes,No,Yes,Yes
0.025,0.35,None,Yes,High,Medium,Male,Yes,High,Yes,No,Yes,Yes,Yes
0.275,0.516667,None,No,High,Medium,Male,No,High,Yes,Yes,Yes,No,Yes
0.25,0.65,Low,Yes,Low,High,Male,No,Medium,No,Yes,No,No,Yes
0.675,0.633333,Low,No,Low,Low,Female,No,Low,Yes,No,No,No,Yes
0.075,0.833333,None,No,Low,High,Male,Yes,High,Yes,Yes,No,Yes,Yes
0.7625,0.666667,None,Yes,Low,High,Male,Yes,High,No,Yes,No,No,Yes
0.9625,0.3,Medium,No,Medium,High,Male,Yes,Low,No,Yes,Yes,No,Yes
0.6625,0.683333,High,No,High,High,Female,Yes,High,No,Yes,No,Yes,Yes
0.6875,0.333333,Medium,No,Low,Low,Female,No,Medium,No,Yes,Yes,Yes,Yes
0.4875,0.15,Medium,No,Low,Low,Male,Yes,Medium,No,Yes,No,No,Yes
0.05,0.216667,Medium,Yes,Low,High,Female,No,Low,Yes,No,Yes,No,Yes
0.9875,0.1,High,Yes,Medium,High,Male,No,Low,No,Yes,Yes,No,Yes
0.9625,0.3,Medium,No,Medium,High,Male,Yes,Low,No,Yes,Yes,No,Yes
0.0125,0.383333,Medium,No,Low,Medium,Female,Yes,Low,No,No,Yes,No,Yes
0.15,1,None,Yes,Low,Medium,Female,No,Low,No,No,Yes,Yes,Yes
0.6375,0.15,Medium,Yes,High,Low,Female,No,Low,No,No,No,No,Yes
0.225,1,High,No,High,Medium,Female,No,Low,Yes,No,No,Yes,Yes
0.5125,0.633333,High,No,High,Medium,Female,No,High,Yes,Yes,No,Yes,Yes
0.25,0.833333,Low,Yes,Low,High,Male,No,Low,Yes,Yes,Yes,Yes,Yes
0.575,0.783333,High,Yes,Low,Low,Male,No,Medium,No,Yes,Yes,No,Yes
0.4125,0.766667,High,No,Medium,Medium,Female,Yes,High,Yes,No,No,No,Yes
0.775,0.133333,High,No,Low,High,Female,Yes,Low,No,No,Yes,Yes,Yes
0.9375,0.4,High,Yes,High,High,Female,Yes,High,No,Yes,No,No,Yes
0.3625,0.633333,None,Yes,Medium,High,Male,No,Medium,No,Yes,No,No,Yes
0.55,0.666667,High,No,High,Medium,Female,No,Low,Yes,No,No,Yes,Yes
0.6875,0.716667,High,No,Medium,Low,Male,No,Medium,Yes,Yes,Yes,Yes,Yes
0.1625,0.683333,High,No,Medium,Low,Female,Yes,Low,Yes,Yes,No,No,Yes
0.9,0.495962,Medium,Yes,Medium,Low,Male,No,Medium,Yes,No,Yes,No,Yes
0.675,0.283333,Low,No,High,High,Male,No,Medium,No,No,Yes,No,Yes
0.85,0.933333,None,No,Low,Low,Male,Yes,Low,Yes,Yes,Yes,Yes,Yes
0.7125,0.2,High,Yes,High,Medium,Female,Yes,High,No,No,Yes,No,Yes
0.3,0.283333,Medium,No,Medium,Low,Male,No,Low,Yes,No,No,Yes,Yes
0.1125,0.416667,None,Yes,Medium,Low,Female,Yes,Low,No,Yes,No,Yes,Yes
0.0875,0.266667,None,No,Medium,High,Male,Yes,Medium,Yes,Yes,Yes,No,Yes
0.025,0.583333,High,No,High,High,Female,Yes,Medium,No,Yes,Yes,Yes,Yes
0.6125,0.533333,Low,Yes,High,Low,Male,Yes,High,No,No,No,No,Yes
0.875,0.133333,Medium,No,Medium,Medium,Female,Yes,Low,No,No,No,Yes,Yes
0.9625,0.05,None,No,Medium,Medium,Female,No,Low,No,No,Yes,Yes,Yes
0.75,0.716667,None,Yes,Low,Medium,Male,No,Medium,No,Yes,No,Yes,Yes
0.0125,0.7,Medium,Yes,High,High,Female,Yes,Medium,Yes,Yes,Yes,Yes,Yes
0.2125,0.4,None,No,Medium,High,Male,Yes,Medium,No,No,No,No,Yes
0.7375,0.116667,High,No,High,High,Male,Yes,High,Yes,Yes,Yes,Yes,Yes
0.125,0.233333,None,Yes,High,Low,Male,No,High,Yes,No,Yes,No,Yes
0.0875,0.266667,None,No,Medium,High,Male,Yes,Medium,Yes,Yes,Yes,No,Yes
0.725,0,Low,Yes,Medium,High,Female,No,Low,No,No,Yes,No,Yes
0.925,0.766667,None,No,Medium,Low,Female,No,Low,Yes,No,Yes,No,Yes
0.775,0.366667,Low,No,Medium,High,Female,Yes,High,Yes,No,Yes,Yes,Yes
0.1875,0.2,Medium,Yes,Medium,High,Female,No,High,No,Yes,Yes,Yes,Yes
0.6875,0.333333,None,No,Medium,High,Female,Yes,High,No,No,No,Yes,Yes
0.5375,0.166667,None,No,Medium,Low,Male,Yes,High,Yes,Yes,Yes,Yes,Yes
0.25,0.833333,High,Yes,Low,High,Female,Yes,Low,Yes,Yes,No,No,Yes
0.2875,0,Medium,Yes,Low,Medium,Female,Yes,High,No,Yes,No,Yes,Yes
0.2125,0.333333,Medium,Yes,Medium,High,Female,No,Low,Yes,No,Yes,No,Yes
0.275,0.616667,High,Yes,Low,Medium,Male,No,Medium,Yes,No,Yes,No,Yes
0.775,0.25,Low,Yes,Low,High,Female,No,Low,No,No,No,No,Yes
0.0125,0.383333,High,Yes,Medium,Medium,Female,No,Low,No,No,Yes,No,Yes
0.6,0.216667,High,Yes,Low,High,Female,Yes,Medium,Yes,No,No,No,Yes
0.45,0.35,Low,Yes,Medium,High,Male,Yes,High,No,No,Yes,Yes,Yes
0.8,0.7,High,Yes,Medium,High,Female,No,High,Yes,Yes,No,No,Yes
0.9375,0.583333,High,Yes,Low,High,Female,No,Low,No,No,No,No,Yes
0.075,1,Medium,Yes,Low,Medium,Female,No,Low,No,No,No,Yes,Yes
0.225,0.25,None,Yes,Low,Low,Male,No,Low,No,Yes,No,Yes,Yes
0.45,0.316667,Low,Yes,Low,Low,Male,No,Medium,Yes,No,No,No,Yes
0.4,0.783333,Medium,No,Low,Low,Male,No,Low,No,No,Yes,Yes,Yes
0.9375,0.333333,None,Yes,Medium,Medium,Female,Yes,High,No,Yes,Yes,No,Yes
0.75,0.3,Low,No,High,Low,Female,Yes,High,No,No,No,No,Yes
0.8625,0.7,None,Yes,High,High,Female,Yes,High,Yes,No,No,Yes,Yes
0.925,0.066667,Low,Yes,Medium,Low,Female,Yes,Medium,Yes,No,No,Yes,Yes
0.55,0.666667,High,No,High,Medium,Female,No,Low,Yes,No,No,Yes,Yes
0.925,0.983333,High,Yes,Low,Low,Female,No,Low,No,No,Yes,Yes,Yes
0.0375,0.85,High,No,High,Medium,Female,Yes,Low,Yes,Yes,Yes,Yes,Yes
0.4625,0.833333,High,No,Low,Low,Male,No,Low,No,No,Yes,No,Yes
0.675,0.866667,High,No,Medium,Medium,Female,No,High,No,Yes,Yes,Yes,Yes
0.1125,0.05,Medium,Yes,Medium,High,Male,Yes,Medium,No,No,Yes,No,Yes
0.4375,0.7,High,Yes,Low,Medium,Female,No,Medium,No,No,No,Yes,Yes
0.425,0.433333,Low,Yes,Medium,High,Male,Yes,High,No,No,Yes,No,Yes
0.6875,0.85,Low,Yes,High,High,Female,No,High,No,No,Yes,Yes,Yes
0.925,0.366667,Medium,Yes,Medium,Medium,Male,No,Medium,No,No,Yes,No,Yes
0.2875,0.866667,High,Yes,Medium,Low,Female,No,High,Yes,Yes,Yes,No,Yes
0.0125,0.366667,High,Yes,Medium,Low,Male,No,High,Yes,No,Yes,No,Yes
0.575,0.15,Low,Yes,Medium,Medium,Female,No,Medium,Yes,Yes,No,Yes,Yes
0,0.7,High,No,High,High,Male,Yes,Medium,No,Yes,Yes,No,Yes
0.775,0.216667,None,Yes,High,High,Male,Yes,Low,No,No,No,No,Yes
0.7375,0.633333,None,No,Low,Low,Female,No,Medium,No,Yes,Yes,Yes,Yes
0.7875,0.133333,Low,No,Low,Medium,Female,No,Low,No,No,Yes,Yes,Yes
0.2375,0.166667,None,No,Low,Low,Female,Yes,Medium,No,No,No,No,Yes
0.7625,0.416667,High,No,Low,Low,Male,No,Low,Yes,No,No,No,Yes
0.325,0.2,Medium,No,Low,Medium,Female,No,High,No,No,Yes,Yes,Yes
0.2875,0.45,Low,No,Medium,Low,Female,No,High,No,No,Yes,No,Yes
0.225,0.166667,None,No,Low,Medium,Female,Yes,Low,No,Yes,No,No,Yes
0.3375,0.45,Medium,Yes,High,High,Female,Yes,Low,No,Yes,Yes,No,Yes
0.5,0.733333,None,No,High,Low,Female,Yes,Low,No,Yes,No,Yes,Yes
0.6625,0.433333,High,Yes,High,High,Female,Yes,Medium,Yes,Yes,Yes,Yes,Yes
0.1,0.983333,High,No,Medium,Medium,Male,Yes,High,Yes,No,No,No,Yes
0.7375,0.15,High,No,Low,Low,Male,No,Medium,Yes,Yes,Yes,Yes,Yes
0.95,0.366667,Low,No,Medium,High,Female,Yes,High,No,Yes,Yes,No,Yes
0.175,0.15,High,No,Medium,Medium,Female,Yes,Medium,No,No,No,No,Yes
0.375,0.066667,Medium,Yes,Medium,High,Female,Yes,Low,Yes,No,Yes,Yes,Yes
0.3875,0.616667,Low,No,Medium,Medium,Male,No,High,No,Yes,No,No,Yes
0.875,0.5,Low,No,Low,Low,Female,Yes,High,No,Yes,Yes,No,Yes
0.1375,0.9,None,Yes,Medium,Low,Female,Yes,Medium,No,No,No,No,Yes
0.6375,0.15,Medium,Yes,High,Low,Female,No,Low,No,No,No,No,Yes
0.025,0.533333,High,No,Low,Medium,Female,Yes,Low,Yes,Yes,Yes,No,Yes
0.65,0.85,High,No,Low,Medium,Female,No,High,No,No,No,Yes,Yes
0.1,0.983333,High,No,Medium,Medium,Male,Yes,High,Yes,No,No,No,Yes
0.45,0.333333,Medium,Yes,High,High,Male,Yes,Medium,No,No,Yes,Yes,Yes
0.525,0.533333,None,No,Low,Medium,Male,No,Medium,No,No,No,Yes,Yes
0.875,0.266667,Medium,Yes,Low,Medium,Male,Yes,Low,No,Yes,Yes,Yes,Yes
0.0625,0.833333,Medium,Yes,High,Low,Male,No,Low,No,Yes,Yes,No,Yes
0.4125,0.5,High,Yes,Medium,Low,Male,Yes,Medium,Yes,No,No,Yes,Yes
0.15,0.5,Low,Yes,Medium,Low,Male,Yes,Medium,Yes,No,No,No,Yes
0.3375,0.033333,Low,No,High,High,Male,No,Low,No,No,Yes,Yes,Yes
0.45,0.4,Medium,Yes,Medium,Low,Male,Yes,Medium,No,No,No,No,Yes
0.775,0.816667,Medium,No,Low,High,Female,No,Medium,Yes,Yes,No,No,Yes
0.325,0.466667,Low,Yes,Medium,Low,Female,No,High,Yes,Yes,Yes,Yes,Yes
0.225,0.75,Medium,No,High,High,Female,No,Medium,Yes,Yes,No,Yes,Yes
0.8625,0.7,None,Yes,Low,High,Male,Yes,High,Yes,Yes,No,Yes,Yes
0.725,0.5,Medium,No,Low,High,Female,Yes,Low,Yes,No,Yes,No,Yes
0.925,0.316667,Low,No,Medium,High,Male,No,Low,No,No,No,Yes,Yes
0.325,0.083333,High,Yes,Medium,Low,Female,No,Low,No,Yes,No,No,Yes
0.1125,0.05,Medium,Yes,Medium,High,Male,Yes,Medium,No,No,Yes,No,Yes
0.6875,0.333333,None,No,Medium,High,Female,Yes,High,No,No,No,Yes,Yes
0.525,0.15,High,Yes,Low,Low,Male,Yes,Medium,Yes,Yes,No,Yes,Yes
0.975,0.316667,None,No,Medium,Medium,Male,No,Medium,No,Yes,Yes,No,Yes
0.125,0.45,Low,Yes,Medium,High,Male,Yes,Low,Yes,No,No,No,Yes
0.375,0.316667,Medium,No,Medium,Low,Female,Yes,Medium,Yes,Yes,Yes,No,Yes
0.525,0.533333,None,No,Low,Medium,Male,No,Medium,No,No,No,Yes,Yes
0.725,0.233333,Low,No,Low,Medium,Male,Yes,Medium,No,Yes,No,Yes,Yes
0.875,0.2,High,Yes,Low,High,Male,No,High,No,Yes,No,No,Yes
0.6875,0.983333,High,No,Low,High,Female,No,Low,No,No,No,No,Yes
0.5125,0.5,Medium,Yes,Low,High,Male,No,Low,No,Yes,Yes,Yes,Yes
0.9,0.683333,High,Yes,Low,Medium,Female,No,High,Yes,No,No,Yes,Yes
0.975,0.933333,Medium,Yes,Medium,Medium,Female,Yes,Low,Yes,Yes,Yes,No,Yes
0.7875,1,None,Yes,High,High,Female,Yes,High,No,No,Yes,No,Yes
0.85,0.366667,None,Yes,High,Low,Male,No,Low,Yes,No,Yes,Yes,Yes
0.375,0.233333,Low,Yes,Low,High,Male,No,Medium,No,No,No,No,Yes
0.425,0.083333,High,Yes,High,Low,Female,No,Medium,No,Yes,Yes,No,Yes
0.775,0.233333,None,Yes,Medium,Low,Female,Yes,Medium,No,Yes,No,Yes,Yes
0.025,0.6,Medium,No,Low,Low,Female,Yes,Medium,Yes,Yes,No,No,Yes
0.3125,0.85,High,No,High,Low,Male,No,Medium,Yes,Yes,Yes,Yes,Yes
0.725,0.433333,Low,Yes,Low,High,Female,Yes,Low,Yes,Yes,No,No,Yes
0.3625,0.466667,None,Yes,Medium,High,Female,No,Low,Yes,Yes,No,Yes,Yes
0.2625,0.616667,Low,Yes,Medium,Medium,Female,Yes,High,Yes,Yes,Yes,No,Yes
0.25,0.816667,None,Yes,High,Low,Female,Yes,High,Yes,No,No,Yes,Yes
0.125,0.6,Medium,No,High,Low,Male,No,High,Yes,No,Yes,Yes,Yes
0.9,0.883333,High,No,Medium,Medium,Male,No,Medium,Yes,No,No,No,Yes
0.275,0.216667,Low,No,Low,Medium,Female,No,Medium,No,Yes,No,No,Yes
0.125,0.766667,Low,No,Medium,High,Female,Yes,Medium,Yes,Yes,Yes,Yes,Yes
0.4875,0.233333,Medium,Yes,Low,Medium,Female,Yes,Low,Yes,Yes,Yes,Yes,Yes
0.5375,0.35,Medium,No,Low,Low,Male,No,High,No,Yes,Yes,No,Yes
0.7,0.983333,High,Yes,High,High,Male,No,Medium,No,Yes,No,Yes,Yes
0,0.7,High,No,High,High,Male,Yes,Medium,No,Yes,Yes,No,Yes
0.4,0.633333,Low,Yes,Low,Low,Female,Yes,High,No,No,No,Yes,Yes
0.3,0.733333,Medium,Yes,High,Low,Female,Yes,Low,No,Yes,No,Yes,Yes
0.575,0.866667,Low,No,Medium,High,Female,Yes,Low,Yes,No,No,Yes,Yes
0.625,0.883333,Low,No,High,High,Male,Yes,High,No,No,No,Yes,Yes
0.6375,1,High,Yes,High,High,Male,Yes,Medium,No,No,No,Yes,Yes
0.2,0.9,Low,Yes,Medium,High,Female,No,High,Yes,No,Yes,No,Yes
0.75,0.083333,None,Yes,High,Medium,Male,Yes,High,No,No,Yes,Yes,Yes
0.5,0.166667,Low,No,Medium,High,Female,No,Medium,Yes,Yes,Yes,Yes,Yes
0.4,0.566667,Low,No,High,Low,Female,No,High,Yes,Yes,Yes,Yes,Yes
0.575,0.466667,Low,No,Medium,Low,Male,No,High,Yes,No,Yes,Yes,Yes
0.0125,0.583333,Low,No,Medium,Low,Male,Yes,High,Yes,Yes,Yes,No,Yes
0.95,0.25,None,Yes,Medium,Medium,Female,No,Low,Yes,Yes,Yes,No,Yes
0.775,0.25,Medium,Yes,Medium,Low,Female,Yes,Medium,No,Yes,No,No,Yes
0.025,0.6,Low,No,High,High,Female,Yes,Low,No,No,No,Yes,Yes
0.575,0.116667,None,Yes,Medium,Medium,Male,No,High,No,Yes,Yes,Yes,Yes
0.325,0.55,Medium,No,Low,Medium,Male,Yes,Low,Yes,No,No,No,Yes
0.1,0.033333,High,Yes,High,Low,Female,No,Medium,No,No,Yes,Yes,Yes
0.7375,0.566667,None,No,High,High,Male,Yes,Medium,Yes,No,Yes,No,Yes
0.1,0.516667,Low,No,High,Low,Female,Yes,Medium,No,No,Yes,Yes,Yes
0.825,0.783333,High,Yes,High,Low,Female,Yes,Medium,Yes,No,Yes,No,Yes
0.4,0.583333,None,No,High,Low,Male,Yes,High,Yes,No,Yes,Yes,Yes
0.2,0.783333,None,Yes,Medium,Medium,Female,No,Medium,Yes,No,Yes,Yes,Yes
0.9125,0.45,Low,No,Low,Low,Male,No,High,Yes,No,Yes,Yes,Yes
0.525,0.466667,Medium,No,Medium,High,Female,No,Low,No,Yes,Yes,No,Yes
0.2625,0.566667,Medium,Yes,Medium,High,Male,Yes,High,Yes,No,Yes,No,Yes
0.6625,0.533333,High,Yes,Medium,High,Female,Yes,High,Yes,No,No,Yes,Yes
0.0375,0.4,High,No,High,Medium,Male,Yes,Medium,Yes,Yes,No,No,Yes
0.5875,0.65,None,No,Low,Medium,Female,No,Medium,No,No,Yes,Yes,Yes
0.2625,0.65,Medium,No,Low,Medium,Female,No,High,No,No,Yes,No,Yes
0.525,0.266667,None,Yes,Medium,High,Female,No,Low,Yes,No,No,No,Yes
0.375,0.1,High,No,Medium,High,Female,No,High,No,Yes,Yes,No,Yes
0.6375,0.25,Medium,No,High,Medium,Male,No,High,Yes,No,No,Yes,Yes
0.3875,0.283333,Medium,Yes,Medium,Low,Male,No,High,No,Yes,Yes,Yes,Yes
0.0375,0.916667,None,Yes,Medium,High,Female,No,High,No,No,Yes,No,Yes
0.1,0.366667,Medium,No,High,Medium,Female,No,Medium,Yes,Yes,Yes,No,Yes
0.15,0.1,High,Yes,Low,Medium,Female,Yes,Medium,Yes,Yes,No,No,Yes
0.5,0.433333,Low,Yes,High,High,Female,Yes,Low,No,Yes,No,No,Yes
0.4625,0.266667,High,Yes,Medium,Medium,Male,Yes,Medium,No,No,No,No,Yes
0.8625,0.283333,None,Yes,Medium,High,Male,Yes,Low,Yes,No,Yes,Yes,Yes
0.8625,0.916667,High,No,High,Medium,Male,No,Low,No,No,No,No,Yes
0.45,0.233333,None,No,Low,Medium,Female,Yes,Medium,Yes,Yes,No,No,Yes
0.7,0.066667,Low,No,High,High,Male,Yes,Medium,No,Yes,No,Yes,Yes
0.5875,0.45,High,Yes,High,High,Female,No,Low,Yes,No,Yes,Yes,Yes
0.8625,0.766667,None,Yes,High,High,Male,No,Low,No,Yes,No,No,Yes
0.75,0.3,Low,No,High,Low,Female,Yes,High,No,No,No,No,Yes
0.501778,0.733333,High,No,High,Low,Female,No,Medium,Yes,Yes,Yes,Yes,Yes
0.0375,0.916667,None,Yes,Medium,High,Female,No,High,No,No,Yes,No,Yes
0.0875,0.683333,None,No,Low,Medium,Male,Yes,Medium,No,No,Yes,No,Yes
0.375,0.116667,High,No,Medium,Medium,Male,Yes,High,Yes,Yes,No,No,Yes
0.2,0.75,Medium,No,Medium,Low,Female,No,High,No,No,No,Yes,Yes
0.6625,0.6,Medium,No,High,Medium,Female,No,Low,Yes,Yes,No,No,Yes
0.0875,0.016667,Medium,Yes,Low,High,Female,Yes,High,Yes,Yes,No,No,Yes
0.925,0.7,Medium,Yes,High,Medium,Male,Yes,Low,No,No,No,No,Yes
0.25,0.4,None,Yes,Low,Low,Female,No,Low,No,No,No,Yes,Yes
0.0125,0.25,Medium,No,High,Low,Female,Yes,High,No,Yes,No,Yes,Yes
0.575,0.816667,Medium,Yes,Low,Medium,Male,Yes,High,No,Yes,Yes,Yes,Yes
0.0375,0,High,No,Low,High,Male,No,High,Yes,Yes,No,Yes,Yes
0.925,0.2,Medium,Yes,High,Low,Female,No,Low,No,No,Yes,Yes,Yes
0.1875,0.166667,None,Yes,High,High,Male,No,Medium,Yes,No,No,Yes,Yes
0.375,0.083333,High,No,Medium,High,Male,No,Low,No,No,No,Yes,Yes
0.125,0.433333,Medium,No,Low,Medium,Female,Yes,Medium,No,Yes,No,No,Yes
0.1,0.066667,Medium,No,High,Medium,Male,Yes,Medium,No,Yes,No,No,Yes
0.9875,0.516667,None,Yes,Medium,Low,Male,No,Low,Yes,Yes,No,No,Yes
0.0375,0.366667,None,No,Low,Medium,Male,No,Medium,Yes,Yes,No,No,Yes
0.3375,0.933333,High,No,Medium,Low,Female,No,High,Yes,No,Yes,Yes,Yes
0.7375,0.016667,Low,Yes,Low,Medium,Female,Yes,Low,No,No,No,No,Yes
0.1625,0.45,None,No,Medium,Low,Male,No,Medium,No,Yes,No,Yes,Yes
0.0375,0.116667,Medium,No,Medium,Medium,Male,No,High,Yes,Yes,No,No,Yes
0.8625,0.7,None,Yes,Low,High,Male,Yes,High,Yes,Yes,No,Yes,Yes
0.5625,0.683333,High,Yes,Low,Low,Female,No,High,No,No,Yes,Yes,Yes
0.2,0.1,None,Yes,Medium,Medium,Male,Yes,Low,Yes,Yes,No,Yes,Yes
0.45,0.516667,Low,No,High,Medium,Female,Yes,Low,No,No,No,No,Yes
0.4125,0.15,Medium,No,Medium,Medium,Male,Yes,Low,No,No,No,No,Yes
0.35,0.833333,None,Yes,Medium,Low,Male,Yes,Medium,No,Yes,Yes,Yes,Yes
0.4875,0.616667,Medium,Yes,Medium,High,Male,No,Low,No,No,No,Yes,Yes
0.7875,0.65,Medium,Yes,Low,High,Female,Yes,High,No,Yes,Yes,No,Yes
0.375,0.083333,High,No,Medium,High,Male,No,Low,No,No,No,Yes,Yes
0.45,0.233333,None,No,Low,Medium,Female,Yes,Medium,Yes,Yes,No,No,Yes
0.375,0.383333,Low,No,Medium,Medium,Female,No,Medium,No,No,No,No,Yes
0.4,0.383333,None,No,Low,High,Male,No,Low,Yes,Yes,Yes,No,Yes
0.4625,0.333333,High,Yes,High,Medium,Male,Yes,Low,Yes,Yes,Yes,Yes,Yes
0.8,0.55,Medium,No,Low,Low,Female,No,Medium,Yes,No,No,Yes,Yes
0.425,0.883333,Medium,Yes,Medium,Low,Female,Yes,Low,Yes,No,No,No,Yes
0.7375,0.883333,Medium,No,High,Low,Female,No,Medium,Yes,Yes,No,Yes,Yes
0.8625,0.966667,Low,No,Low,Medium,Male,Yes,High,No,Yes,No,Yes,Yes
0.15,0.816667,Medium,Yes,Medium,Low,Female,No,Low,Yes,Yes,No,No,Yes
0.501778,0.866667,Low,No,Medium,High,Male,Yes,Medium,No,No,No,Yes,Yes
0.5375,0.15,High,No,Low,High,Female,No,Medium,No,No,Yes,Yes,Yes
0.1375,0.166667,Medium,Yes,Low,Medium,Male,Yes,Medium,Yes,Yes,No,Yes,Yes
0.7875,0.9,High,Yes,Medium,Low,Female,No,High,Yes,No,Yes,No,Yes
0.6,0.85,Medium,No,High,Low,Female,Yes,Low,No,No,Yes,Yes,Yes
0.95,0.516667,Low,No,Low,Low,Female,Yes,High,Yes,Yes,Yes,No,Yes
0.6875,0.4,High,Yes,High,High,Male,Yes,High,No,Yes,Yes,No,Yes
0.2625,0.766667,Medium,Yes,High,High,Male,Yes,Low,No,Yes,No,Yes,Yes
0.5875,0.25,Low,Yes,Medium,Low,Female,No,Medium,No,Yes,Yes,No,Yes
0.5375,0.7,High,Yes,Medium,High,Female,Yes,Low,Yes,No,Yes,No,Yes
0.65,0.85,High,No,Low,Medium,Female,No,High,No,No,No,Yes,Yes
0.9125,0.233333,High,Yes,High,Low,Male,No,High,No,Yes,No,No,Yes
0.85,0.133333,None,No,Low,Low,Female,Yes,Low,Yes,No,Yes,Yes,Yes
0.95,0.583333,High,No,Low,Low,Male,Yes,Medium,No,No,Yes,Yes,Yes
0.825,0,Medium,No,High,Medium,Female,Yes,High,Yes,No,Yes,No,Yes
0.525,0.833333,Low,Yes,High,Medium,Female,Yes,Low,Yes,Yes,Yes,Yes,Yes
0.6625,0.85,None,No,Medium,Low,Male,Yes,Medium,Yes,No,No,No,Yes
0.1,0.583333,None,No,Medium,High,Male,Yes,Medium,Yes,Yes,No,Yes,Yes
1,0.133333,Low,No,Medium,Low,Male,Yes,High,Yes,No,Yes,Yes,Yes
0.2125,1,None,No,High,High,Male,No,High,No,No,No,No,Yes
0.325,0.55,High,No,Medium,Low,Female,Yes,High,No,Yes,No,No,Yes
0.6375,1,High,Yes,High,High,Male,Yes,Medium,No,No,No,Yes,Yes
0.625,0.883333,Low,No,High,High,Male,Yes,High,No,No,No,Yes,Yes
0.1125,0.65,Low,No,High,Low,Male,No,Low,Yes,Yes,No,No,Yes
0.25,0.833333,Medium,Yes,Medium,Low,Female,No,Low,Yes,Yes,Yes,Yes,Yes
0.8875,0.816667,None,Yes,High,Low,Male,No,Low,Yes,Yes,Yes,No,Yes
0.2375,0.05,Medium,Yes,High,Medium,Male,No,Medium,Yes,No,Yes,Yes,Yes
0.5,0.283333,High,No,High,Medium,Female,Yes,Medium,Yes,Yes,No,No,Yes
0.925,0.583333,Low,No,High,High,Female,Yes,Medium,Yes,Yes,Yes,Yes,Yes
0.0875,0.083333,Medium,Yes,Low,Medium,Male,Yes,High,No,No,No,Yes,Yes
0.85,0.816667,Medium,No,Low,Low,Female,Yes,High,Yes,No,No,No,Yes
0.5125,0.5,Medium,Yes,Low,High,Male,No,Low,No,Yes,Yes,Yes,Yes
0.4625,0.483333,Low,No,High,Medium,Female,No,Medium,Yes,Yes,No,Yes,Yes
0.9875,0.866667,High,No,Medium,Low,Male,No,High,Yes,No,Yes,Yes,Yes
0.2375,0.533333,Medium,No,High,High,Female,No,Low,No,No,No,No,Yes
0.325,0.133333,Medium,Yes,High,Medium,Male,Yes,High,No,No,Yes,No,Yes
0.975,1,Medium,Yes,Medium,Low,Male,Yes,Low,No,No,Yes,No,Yes
0.7125,0.766667,Low,No,High,Low,Female,Yes,Medium,Yes,Yes,Yes,No,Yes
0.0125,0.233333,Low,No,Low,High,Male,Yes,Medium,Yes,No,No,Yes,Yes
0.1875,0.883333,Low,No,Low,Medium,Female,Yes,Low,No,Yes,Yes,No,Yes
0.7625,0.666667,None,Yes,Low,High,Male,Yes,High,No,Yes,No,No,Yes
1,0.4,Low,Yes,Low,High,Female,No,High,No,Yes,Yes,No,Yes
0.0125,0.883333,Medium,Yes,Low,High,Male,No,Medium,Yes,Yes,No,Yes,Yes
0.7375,0,High,Yes,High,Low,Female,Yes,Low,Yes,Yes,Yes,Yes,Yes
0.85,0.716667,High,Yes,Medium,Low,Female,No,Medium,No,No,Yes,No,Yes
0.9125,0.016667,None,Yes,Low,Medium,Female,Yes,High,No,No,Yes,Yes,Yes
0.4,0.4,Low,Yes,High,High,Female,No,Medium,Yes,Yes,No,No,Yes
0.3375,0.983333,Medium,Yes,Medium,Medium,Male,Yes,High,Yes,No,No,Yes,Yes
0.1125,0.033333,High,Yes,Low,Medium,Male,Yes,High,Yes,Yes,Yes,Yes,Yes
0.925,0.7,Medium,Yes,High,Medium,Male,Yes,Low,No,No,No,No,Yes
0.325,0.183333,None,Yes,Medium,Low,Male,No,Medium,Yes,No,No,No,Yes
0.2875,0.2,High,Yes,High,Low,Male,Yes,Medium,No,No,Yes,Yes,Yes
0.1625,0.85,High,No,Low,High,Female,Yes,High,Yes,Yes,No,No,Yes
0.9125,0.833333,None,No,Medium,Medium,Male,No,High,No,No,Yes,No,Yes
0.1375,0.116667,None,Yes,Low,Low,Male,No,Medium,Yes,No,Yes,No,Yes
0.625,0.2,Medium,Yes,Medium,Medium,Male,Yes,Low,No,Yes,Yes,Yes,Yes
0.175,0.183333,None,Yes,Medium,High,Female,Yes,High,Yes,No,Yes,Yes,Yes
0.1875,0.1,None,No,High,High,Male,Yes,Medium,Yes,No,No,Yes,Yes
0,0.533333,Low,No,High,Low,Female,No,High,Yes,Yes,No,Yes,Yes
0.8875,0.783333,None,Yes,Medium,High,Male,No,Low,No,Yes,No,Yes,Yes
0.3125,0.283333,Low,No,Medium,Low,Male,No,High,No,Yes,Yes,Yes,Yes
0.125,0.266667,High,Yes,High,Medium,Female,No,Medium,Yes,No,Yes,Yes,Yes
0.8875,0.5,Medium,No,Medium,High,Female,Yes,Medium,No,No,Yes,Yes,Yes
0.0875,0.266667,None,No,Medium,High,Male,Yes,Medium,Yes,Yes,Yes,No,Yes
0.6125,0.333333,Low,Yes,Medium,High,Male,No,Low,No,Yes,No,No,Yes
0.175,0.85,Medium,Yes,Low,High,Male,Yes,High,No,Yes,Yes,Yes,Yes
0.7125,0.2,Low,Yes,High,Low,Male,No,High,No,Yes,Yes,Yes,Yes
0.325,0.833333,Medium,No,Medium,Medium,Female,Yes,Low,No,Yes,No,Yes,Yes
0.6625,0.383333,Low,Yes,High,Low,Male,No,Medium,Yes,Yes,Yes,Yes,Yes
0.8625,0.916667,High,No,High,Medium,Male,No,Low,No,No,No,No,Yes
0.6375,0.75,None,No,Low,Medium,Female,Yes,Low,No,Yes,Yes,Yes,Yes
0.3625,0.566667,High,Yes,Medium,Medium,Male,No,Low,No,No,No,No,Yes
0.575,0.6,Medium,Yes,High,Low,Female,Yes,Medium,Yes,No,Yes,No,Yes
0.9375,0.166667,Low,No,High,High,Male,No,High,Yes,Yes,Yes,No,Yes
0.3875,0.7,Medium,No,High,Medium,Female,Yes,High,No,No,Yes,Yes,Yes
0.1,0.366667,Medium,No,High,Medium,Female,No,Medium,Yes,Yes,Yes,No,Yes
0.1,0.416667,None,No,Low,High,Male,Yes,Medium,No,No,No,Yes,Yes
0.7875,0.3,High,Yes,Medium,Medium,Male,Yes,Low,Yes,No,Yes,No,Yes
0.925,0.766667,None,No,Medium,Low,Female,No,Low,Yes,No,Yes,No,Yes
0.9625,0,High,No,Medium,Medium,Female,No,High,Yes,No,Yes,No,Yes
0.6,0.533333,High,No,Medium,Low,Female,No,Medium,No,No,No,No,Yes
0.8125,0.283333,None,No,High,Low,Female,Yes,Medium,No,No,No,Yes,Yes
0.0375,0.116667,Medium,No,Medium,Medium,Male,No,High,Yes,Yes,No,No,Yes
0.6375,0.25,Medium,No,High,Medium,Male,No,High,Yes,No,No,Yes,Yes
0.225,0.4,Low,No,Medium,High,Male,No,High,No,Yes,No,No,Yes
0.4125,0.866667,None,No,Medium,Low,Male,Yes,Medium,No,Yes,No,Yes,Yes
0.125,0.483333,High,No,Low,High,Female,No,High,Yes,Yes,No,No,Yes
0.6375,0.75,None,No,Low,Medium,Female,Yes,Low,No,Yes,Yes,Yes,Yes
0.525,0.566667,High,Yes,Low,Medium,Male,Yes,Low,Yes,Yes,No,No,Yes
0.95,0.2,None,No,Medium,Medium,Female,No,Low,No,Yes,Yes,No,Yes
1,0.7,None,No,Low,Low,Male,Yes,Low,No,Yes,Yes,Yes,Yes
0.2,0.516667,High,Yes,High,Medium,Male,Yes,Medium,Yes,Yes,No,Yes,Yes
0.5875,0.783333,Medium,Yes,Medium,Medium,Female,No,Low,Yes,No,No,No,Yes
0.9375,0.033333,Low,No,Low,Low,Female,No,High,Yes,Yes,Yes,No,Yes
0.65,0.55,High,No,High,High,Male,Yes,Medium,Yes,No,No,Yes,Yes
0.025,0.8,None,Yes,Medium,Low,Female,No,High,No,Yes,Yes,No,Yes
0.775,0.083333,Low,Yes,High,Medium,Male,Yes,High,No,Yes,Yes,Yes,Yes
0.775,0.616667,High,Yes,Medium,Low,Female,No,Medium,Yes,No,Yes,Yes,Yes
0.3875,0.633333,None,No,Low,Medium,Male,No,Medium,Yes,No,Yes,No,Yes
0.775,0.883333,Low,No,Medium,Medium,Male,Yes,Low,Yes,Yes,Yes,Yes,Yes
0.125,0.766667,Low,No,Medium,High,Female,Yes,Medium,Yes,Yes,Yes,Yes,Yes
0.9125,0.616667,Low,No,High,Low,Male,Yes,High,Yes,Yes,Yes,Yes,Yes
0.825,0.916667,Low,Yes,Low,Medium,Female,Yes,Low,Yes,Yes,No,No,Yes
1,0.133333,Low,Yes,High,Low,Female,Yes,Low,Yes,No,Yes,No,Yes
0.0125,0.533333,High,No,Medium,Low,Female,Yes,Medium,No,Yes,No,No,Yes
0.1125,0.783333,High,No,High,Low,Female,No,High,Yes,No,Yes,Yes,Yes
0.975,0.7,Low,No,High,Low,Female,No,Medium,No,Yes,No,Yes,Yes
0.15,0.333333,High,No,Low,High,Female,No,High,Yes,Yes,Yes,Yes,Yes
0.925,0.266667,High,No,High,Low,Female,No,Low,Yes,Yes,Yes,No,Yes
0.0125,0.883333,Medium,No,Low,High,Male,No,Low,Yes,Yes,No,No,Yes
0.2375,0.333333,Low,Yes,Low,High,Male,Yes,Low,No,Yes,No,Yes,Yes
0.7625,0.45,None,Yes,High,High,Male,No,High,No,No,Yes,No,Yes
0.875,0.933333,Low,Yes,High,Medium,Male,Yes,Low,Yes,Yes,Yes,Yes,Yes
0.55,0.466667,None,No,Medium,Medium,Female,Yes,High,No,Yes,No,Yes,Yes
0.0625,0.6,Medium,No,High,High,Male,No,High,No,No,No,Yes,Yes
0.625,0.55,High,No,High,Medium,Male,Yes,Low,No,No,Yes,Yes,Yes
0.0375,0.5,Medium,Yes,High,High,Male,No,Low,No,No,Yes,Yes,Yes
0.6,0.833333,Low,No,Low,Low,Male,No,Medium,No,Yes,Yes,No,Yes
0.2375,0.816667,Medium,No,Medium,Low,Male,No,High,No,No,No,No,Yes
0.175,0.183333,None,Yes,Medium,High,Female,Yes,High,Yes,No,Yes,Yes,Yes
0.0625,0.6,Medium,No,High,High,Male,No,High,No,No,No,Yes,Yes
0.4625,0.466667,Medium,Yes,High,Medium,Male,No,High,Yes,Yes,No,Yes,Yes
0.8625,0.183333,Low,Yes,High,High,Female,No,Low,No,No,Yes,Yes,Yes
0.95,0.1,High,No,Low,Low,Female,No,Low,Yes,Yes,Yes,No,Yes
0.325,0.383333,None,Yes,High,High,Female,Yes,Medium,Yes,No,No,No,Yes
0.9375,0.033333,Low,No,Low,Low,Female,No,High,Yes,Yes,Yes,No,Yes
0.0125,0.183333,None,No,Low,Low,Male,No,Medium,No,Yes,Yes,Yes,Yes
0.7375,0.633333,None,No,Low,Low,Female,No,Medium,No,Yes,Yes,Yes,Yes
0.6625,0.683333,Medium,Yes,Medium,High,Female,No,Low,No,Yes,No,No,Yes
0.1,0.533333,None,Yes,Low,Low,Male,No,High,Yes,Yes,No,Yes,Yes
0.1875,0.966667,Low,No,High,Medium,Female,No,Low,Yes,No,No,No,Yes
0.7125,0.316667,High,Yes,Medium,Medium,Female,Yes,Medium,Yes,No,Yes,Yes,Yes
0.3,0.616667,High,No,Low,Low,Female,Yes,High,Yes,Yes,Yes,No,Yes
0.65,0.666667,None,Yes,High,High,Female,Yes,High,Yes,No,No,No,Yes
0.2125,0.933333,Medium,Yes,Medium,Medium,Female,No,Medium,Yes,No,Yes,Yes,Yes
0.6625,0.116667,Low,Yes,Medium,High,Male,Yes,Low,Yes,Yes,No,No,Yes
0.1,0.25,High,No,Low,Low,Male,No,Medium,Yes,Yes,No,Yes,Yes
0.8,0.916667,High,No,High,Low,Female,Yes,High,Yes,Yes,Yes,Yes,Yes
0.075,0.933333,Low,Yes,Low,Low,Male,No,High,No,No,Yes,Yes,Yes
0.625,0.633333,None,Yes,Low,High,Female,No,High,No,Yes,No,No,Yes
0.8,0.333333,Low,Yes,Medium,High,Male,Yes,High,Yes,Yes,No,Yes,Yes
0.075,0.1,None,Yes,Medium,Low,Female,No,Low,Yes,Yes,Yes,No,Yes
0.8375,0.1,Low,No,Medium,High,Female,No,High,No,No,No,No,Yes
0.95,0.25,None,Yes,Medium,Medium,Female,No,Low,Yes,Yes,Yes,No,Yes
0.3625,0.766667,None,Yes,Low,Low,Male,No,High,No,No,Yes,No,Yes
0.1625,0.05,Low,No,Medium,High,Male,Yes,Low,Yes,No,Yes,Yes,Yes
0.2875,0.833333,Low,Yes,Low,Medium,Female,Yes,Low,No,Yes,Yes,No,Yes
0.9875,1,None,Yes,Medium,High,Male,Yes,High,No,No,Yes,Yes,Yes
0.3375,0.45,Medium,Yes,High,High,Female,Yes,Low,No,Yes,Yes,No,Yes
0.7625,0.116667,High,Yes,High,Medium,Male,No,Medium,Yes,No,Yes,Yes,Yes
0.275,0.216667,Low,No,Low,Medium,Female,No,Medium,No,Yes,No,No,Yes
0.7875,0.233333,Low,Yes,Low,Low,Male,No,Medium,Yes,Yes,Yes,No,Yes
0.8625,0.966667,Low,No,High,Low,Male,Yes,Medium,No,Yes,Yes,No,Yes
0.625,0.033333,None,Yes,Medium,Low,Male,Yes,Medium,Yes,Yes,Yes,No,Yes
0.6125,0.183333,Low,No,Medium,Medium,Female,No,High,Yes,No,No,Yes,Yes
0.5875,0.616667,None,Yes,Medium,Medium,Female,Yes,Medium,Yes,No,Yes,No,Yes
0.625,0.75,Low,No,High,Medium,Female,No,High,No,Yes,No,Yes,Yes
0.7625,0.466667,High,No,High,High,Male,No,Medium,No,Yes,No,Yes,Yes
0.375,0.233333,Low,Yes,Low,High,Male,No,Medium,No,No,No,No,Yes
0.225,0.416667,Medium,No,Low,Low,Male,Yes,Low,Yes,No,No,No,Yes
0.45,0.25,Medium,Yes,Low,Low,Female,No,Medium,No,No,Yes,No,Yes
0.05,0.983333,High,Yes,Low,Medium,Female,Yes,Low,No,No,No,No,Yes
0.1,0.65,High,Yes,Medium,Low,Female,No,High,Yes,No,Yes,Yes,Yes
0.325,0.516667,Medium,No,High,Medium,Female,Yes,Medium,Yes,Yes,No,Yes,Yes
0.525,0.266667,None,Yes,Medium,High,Female,No,Low,Yes,No,No,No,Yes
0.075,1,Low,Yes,High,Medium,Male,No,Medium,No,No,Yes,No,Yes
0.8875,0.15,Medium,No,Low,Medium,Female,No,High,Yes,No,No,No,Yes
0.7375,0.566667,None,No,High,High,Male,Yes,Medium,Yes,No,Yes,No,Yes
0.7875,0.083333,Low,Yes,Low,High,Male,No,High,No,No,No,Yes,Yes
0.8625,0.916667,High,No,High,Medium,Male,No,Low,No,No,No,No,Yes
0.625,0.9,None,Yes,High,High,Male,Yes,Medium,No,No,No,Yes,Yes
0.275,0.7,Low,Yes,Low,High,Female,Yes,Medium,Yes,Yes,Yes,No,Yes
0.35,0.783333,Medium,No,Low,Medium,Female,No,Medium,Yes,No,No,No,Yes
0.225,0.366667,Low,No,Medium,High,Male,Yes,High,No,No,No,Yes,Yes
0.6375,0.5,Low,Yes,Low,Low,Female,Yes,High,Yes,Yes,No,No,Yes
0.7625,0.833333,Medium,Yes,High,Medium,Male,Yes,High,Yes,Yes,Yes,No,Yes
0.4375,0.833333,None,No,Medium,Low,Male,Yes,Medium,No,No,Yes,No,Yes
0.45,0.75,None,Yes,Medium,Low,Female,No,Medium,Yes,Yes,Yes,No,Yes
0.05,0.233333,Low,Yes,Low,High,Male,Yes,Low,No,Yes,Yes,Yes,Yes
0.65,0.1,High,Yes,Low,Low,Female,No,Low,No,No,Yes,Yes,Yes
0.35,0.416667,Low,Yes,Medium,Medium,Female,Yes,Medium,No,Yes,Yes,No,Yes
0.3875,0.166667,None,Yes,Low,Low,Female,No,Low,Yes,No,Yes,No,Yes
0.9375,0.066667,High,No,Medium,High,Male,No,High,No,No,No,No,Yes
0.475,0.55,Low,No,High,High,Female,No,Low,No,Yes,No,Yes,Yes
0.675,0,None,Yes,Medium,Medium,Male,Yes,Medium,No,Yes,No,No,Yes
0.375,0.783333,Medium,No,Low,Medium,Female,Yes,Medium,Yes,Yes,No,No,Yes
0.625,0.55,Low,No,Low,High,Male,No,Medium,Yes,No,No,Yes,Yes
0.6375,0.95,None,No,Low,Medium,Female,No,Low,Yes,No,Yes,No,Yes
0.925,0.266667,High,No,High,Low,Female,No,Low,Yes,Yes,Yes,No,Yes
0.2875,0.383333,None,No,Medium,High,Female,Yes,High,No,No,Yes,No,Yes
0.7875,0.333333,High,Yes,Low,Low,Male,No,Medium,No,Yes,No,Yes,Yes
0.4125,0.783333,High,No,Medium,Low,Female,Yes,High,Yes,No,No,Yes,Yes
0.625,0.233333,Medium,No,Low,Low,Female,No,Low,No,Yes,No,Yes,Yes
0.5,0.316667,Medium,Yes,High,Low,Male,No,Medium,Yes,Yes,Yes,No,Yes
0.2,0.9,Low,Yes,Medium,High,Female,No,High,Yes,No,Yes,No,Yes
0.6,0.95,High,No,Medium,Low,Male,Yes,High,No,No,Yes,No,Yes
0.5625,0,Medium,Yes,Low,Low,Male,No,Medium,Yes,No,No,No,Yes
0.9875,0.3,High,Yes,Low,High,Male,Yes,Low,Yes,No,No,No,Yes
0.35,0.1,High,No,Medium,Low,Male,No,Medium,Yes,No,No,No,Yes
0.225,0.366667,None,Yes,High,Low,Male,No,High,No,No,No,Yes,Yes
0.6,0.416667,Low,Yes,Medium,Medium,Female,Yes,Low,No,No,No,Yes,Yes
0.325,0.25,Medium,Yes,Low,Medium,Female,No,High,No,No,Yes,Yes,Yes
0.1625,0.55,Medium,No,Medium,Low,Male,No,High,Yes,No,No,No,Yes
1,0.633333,None,No,Low,Medium,Female,No,High,Yes,Yes,No,Yes,Yes
0.3125,0.266667,Medium,No,High,High,Male,No,High,No,No,No,No,Yes
0.525,0.833333,Low,Yes,High,Medium,Female,Yes,Low,Yes,Yes,Yes,Yes,Yes
0.6125,0.466667,High,Yes,Medium,Low,Male,No,High,Yes,Yes,No,No,Yes
0.15,0.416667,Low,No,Medium,Medium,Male,No,Medium,Yes,No,Yes,Yes,Yes
0.5875,1,High,No,High,High,Male,No,High,No,No,Yes,Yes,Yes
0.9625,0.05,None,No,Medium,Medium,Female,No,Low,No,No,Yes,Yes,Yes
0.7625,0.816667,Low,No,Medium,High,Male,No,Medium,No,Yes,No,No,Yes
0.3125,0.783333,High,Yes,High,Low,Female,Yes,High,Yes,No,Yes,Yes,Yes
0.4875,0.283333,None,No,Low,Low,Female,No,Medium,Yes,Yes,Yes,No,Yes
0.8875,0.966667,None,No,Low,Low,Female,No,Low,Yes,Yes,Yes,Yes,Yes
0.2,0.1,None,Yes,Medium,Medium,Male,Yes,Low,Yes,Yes,No,Yes,Yes
0.55,0.75,None,Yes,High,Low,Male,Yes,High,Yes,Yes,Yes,No,Yes
0.7,0.066667,Low,No,High,High,Male,Yes,Medium,No,Yes,No,Yes,Yes
0.875,0.1,Medium,Yes,Medium,High,Female,Yes,High,No,Yes,Yes,No,Yes
0.4625,0.783333,Low,No,High,High,Female,No,Medium,Yes,Yes,No,Yes,Yes
0.7625,0.833333,Medium,Yes,High,Medium,Male,Yes,High,Yes,Yes,Yes,No,Yes
0.3875,0.9,High,Yes,Medium,High,Male,Yes,High,Yes,No,No,Yes,Yes
0.2625,0.583333,None,Yes,Low,Medium,Female,No,High,Yes,No,No,No,Yes
0.7125,0.35,Medium,Yes,Low,Medium,Male,No,Medium,No,Yes,No,Yes,Yes
0.925,0.583333,Low,No,High,High,Female,Yes,Medium,Yes,Yes,Yes,Yes,Yes
0.125,0.916667,Medium,No,Low,High,Female,No,Low,No,Yes,No,Yes,Yes
0.6875,0.85,Low,Yes,High,High,Female,No,High,No,No,Yes,Yes,Yes
0.45,0.65,Low,Yes,High,High,Female,Yes,High,Yes,Yes,No,Yes,Yes
0.7125,0.1,Medium,Yes,Low,Medium,Male,No,High,Yes,No,Yes,Yes,Yes
0.0625,0,Low,Yes,Low,Low,Male,No,Medium,Yes,No,No,No,Yes
0.575,0.866667,Low,No,Medium,High,Female,Yes,Low,Yes,No,No,Yes,Yes
0.2625,0.033333,Low,Yes,Medium,Medium,Female,No,High,No,No,Yes,No,Yes
0.3125,0.133333,Low,Yes,High,Low,Female,No,High,Yes,Yes,No,No,Yes
0.75,0.383333,Medium,No,High,Medium,Female,Yes,Medium,No,No,No,Yes,Yes
0.85,0.033333,Medium,Yes,Medium,High,Female,Yes,High,Yes,Yes,Yes,Yes,Yes
0.7625,0.416667,High,No,Low,Low,Male,No,Low,Yes,No,No,No,Yes
0.0875,0.25,Low,No,Medium,Low,Female,Yes,Low,No,Yes,No,No,Yes
0.8375,0.35,Medium,Yes,Low,High,Female,Yes,High,Yes,No,Yes,No,Yes
0.9375,0.016667,Low,No,Medium,Medium,Male,Yes,Medium,No,Yes,No,No,Yes
0.1125,0.783333,High,No,High,Low,Female,No,High,Yes,No,Yes,Yes,Yes
0.0125,0.233333,High,No,Medium,Low,Female,No,High,Yes,Yes,No,No,Yes
0.025,0.183333,High,Yes,High,Medium,Male,Yes,High,Yes,No,Yes,Yes,Yes
0.775,0.266667,None,Yes,Medium,Medium,Female,Yes,Medium,Yes,Yes,No,No,Yes
0.9375,0.783333,None,No,Low,High,Female,No,Low,No,Yes,Yes,No,Yes
0.375,0.366667,High,No,Low,Low,Female,Yes,High,No,Yes,No,Yes,Yes
0.5875,0.633333,None,Yes,High,Low,Male,Yes,High,No,Yes,Yes,No,Yes
0.1375,0.066667,Low,No,High,High,Female,Yes,High,Yes,Yes,No,Yes,Yes
0.85,0.816667,Medium,No,Low,Low,Female,Yes,High,Yes,No,No,No,Yes
1,0.783333,Low,Yes,Low,Low,Male,Yes,Low,Yes,No,No,Yes,Yes
0.6375,0.95,High,Yes,Medium,High,Male,Yes,High,No,No,Yes,No,Yes
0.975,0.966667,High,No,Medium,Medium,Male,No,High,No,No,No,Yes,Yes
0.5375,0.7,High,Yes,Medium,High,Female,Yes,Low,Yes,No,Yes,No,Yes
0.5375,0.35,Medium,No,Low,Low,Male,No,High,No,Yes,Yes,No,Yes
0.8375,0.1,Low,No,Medium,High,Female,No,High,No,No,No,No,Yes
0.8,0.55,Medium,No,Low,Low,Female,No,Medium,Yes,No,No,Yes,Yes
0.5125,0.816667,Low,Yes,High,High,Female,No,Medium,Yes,No,Yes,Yes,Yes
0.7375,0.783333,None,Yes,High,Low,Male,No,Medium,Yes,Yes,No,Yes,Yes
0.1375,0.166667,Medium,Yes,Low,Medium,Male,Yes,Medium,Yes,Yes,No,Yes,Yes
1,0.166667,None,No,High,High,Female,No,Medium,Yes,Yes,No,Yes,Yes
0.375,0.25,None,No,Low,Medium,Female,Yes,Low,No,Yes,Yes,Yes,Yes
0.275,0.216667,Low,No,Low,Medium,Female,No,Medium,No,Yes,No,No,Yes
0.8,0.333333,Low,Yes,Medium,High,Male,Yes,High,Yes,Yes,No,Yes,Yes
0.9125,0.233333,High,Yes,High,Low,Male,No,High,No,Yes,No,No,Yes
0.5125,0.333333,Medium,No,Medium,High,Female,No,Low,No,Yes,No,Yes,Yes
0.4,0.783333,Medium,No,Low,Low,Male,No,Low,No,No,Yes,Yes,Yes
0.925,0.95,High,No,Low,High,Male,No,High,Yes,No,Yes,Yes,Yes
0.6,0.133333,None,No,Medium,Low,Female,No,Medium,No,No,Yes,Yes,Yes
0.325,0.133333,Medium,Yes,High,Medium,Male,Yes,High,No,No,Yes,No,Yes
0.825,0,Medium,No,High,Medium,Female,Yes,High,Yes,No,Yes,No,Yes
0.0125,0.183333,High,No,Medium,Low,Male,No,High,Yes,Yes,No,No,Yes
0.4875,0.766667,Medium,Yes,Medium,High,Male,No,Low,No,Yes,No,No,Yes
0.35,0.316667,High,Yes,Low,Low,Female,No,Medium,Yes,Yes,No,Yes,Yes
0.475,0.15,Low,No,High,Medium,Male,No,High,No,No,Yes,Yes,Yes
0.125,0.483333,High,No,Low,High,Female,No,High,Yes,Yes,No,No,Yes
0.5,0.266667,High,No,Low,Low,Female,Yes,Medium,Yes,Yes,Yes,Yes,Yes
0.35,0.583333,None,No,Medium,High,Female,No,Medium,No,Yes,No,No,Yes
0.425,0.633333,Low,Yes,Medium,High,Female,Yes,High,No,No,No,Yes,Yes
0.6125,1,Low,Yes,Medium,Medium,Female,No,High,Yes,No,Yes,No,Yes
0.35,0.983333,Low,No,High,High,Female,No,Medium,Yes,No,No,Yes,Yes
0.25,0.266667,None,No,Low,Medium,Female,No,High,No,Yes,No,Yes,Yes
0.8875,0.533333,None,No,Low,High,Male,Yes,Low,No,Yes,Yes,No,Yes
0.0625,0.366667,Low,No,Medium,High,Male,No,Medium,No,No,Yes,Yes,Yes
0.9125,0.1,Medium,Yes,Medium,High,Female,No,Low,Yes,No,Yes,No,Yes
0.2375,0.75,None,No,High,Low,Female,Yes,High,Yes,No,No,No,Yes
0.4875,0.05,Medium,Yes,Low,High,Male,No,High,No,Yes,Yes,Yes,Yes
0.7,0.233333,None,Yes,Low,High,Female,No,Medium,No,Yes,Yes,Yes,Yes
0.7125,0.116667,None,No,Medium,High,Female,Yes,Low,No,No,No,Yes,Yes
0.7875,0.9,Low,No,Medium,High,Male,Yes,Low,Yes,No,Yes,Yes,Yes
0.0625,0.7,Low,Yes,Medium,High,Male,No,Medium,No,No,No,No,Yes
0.9,0.85,High,Yes,High,Medium,Male,Yes,Medium,Yes,Yes,Yes,Yes,Yes
0.8125,0.75,Low,Yes,Low,Medium,Female,Yes,High,Yes,Yes,No,Yes,Yes
0.75,0.083333,None,Yes,High,Medium,Male,Yes,High,No,No,Yes,Yes,Yes
0.501778,0.866667,Low,No,Medium,High,Male,Yes,Medium,No,No,No,Yes,Yes
0.2,0.783333,None,Yes,Medium,Medium,Female,No,Medium,Yes,No,Yes,Yes,Yes
0.65,0.55,High,Yes,Medium,Medium,Female,Yes,Medium,No,Yes,Yes,Yes,Yes
0.3125,0.466667,None,No,Low,High,Male,No,High,No,No,No,No,Yes
0.5,0.75,Medium,No,Medium,Medium,Male,No,Medium,Yes,Yes,Yes,No,Yes
0.325,0.766667,Medium,Yes,High,Low,Male,Yes,Low,No,Yes,Yes,No,Yes
0.3875,0.616667,Low,No,Medium,Medium,Male,No,High,No,Yes,No,No,Yes
0.6375,1,High,Yes,High,High,Male,Yes,Medium,No,No,No,Yes,Yes
0.85,0.916667,Low,Yes,Medium,High,Male,No,Low,No,Yes,No,No,Yes
0.7875,0.466667,Low,No,Medium,High,Female,No,Low,Yes,Yes,No,No,Yes
0.1875,0.883333,Low,No,Low,Medium,Female,Yes,Low,No,Yes,Yes,No,Yes
0.1625,0.233333,None,Yes,Low,Low,Female,No,Low,No,Yes,Yes,Yes,Yes
0.475,0.85,Low,No,Medium,Low,Female,No,Medium,No,No,Yes,Yes,Yes
0.475,0.2,High,Yes,Low,High,Female,No,High,No,No,No,Yes,Yes
0.8875,0.55,Medium,Yes,Low,Medium,Male,No,Medium,Yes,No,No,No,Yes
0.75,0.766667,Low,No,High,High,Male,No,Medium,Yes,No,Yes,No,Yes
0.5625,0.533333,Low,No,High,High,Male,Yes,Low,No,Yes,Yes,No,Yes
0.25,0.4,None,Yes,Low,Low,Female,No,Low,No,No,No,Yes,Yes
0.3125,0.933333,None,No,Low,High,Male,Yes,Low,Yes,Yes,Yes,No,Yes
0.2375,0.066667,Medium,No,Medium,Low,Female,Yes,Medium,No,Yes,Yes,Yes,Yes
0.9,0.495962,Medium,Yes,Medium,Low,Male,No,Medium,Yes,No,Yes,No,Yes
0.8125,0.866667,Low,Yes,Low,Low,Female,No,Medium,No,No,No,Yes,Yes
0.3,0.183333,Low,No,High,High,Female,No,Low,No,No,No,No,Yes
0.2625,0.416667,None,No,Medium,Low,Female,No,High,Yes,Yes,No,Yes,Yes
0.5625,0.7,High,Yes,High,Medium,Male,No,Low,Yes,No,No,Yes,Yes
0.325,0.85,High,Yes,Medium,Low,Male,Yes,Low,Yes,Yes,Yes,No,Yes
0.7875,0.05,Medium,No,Medium,High,Female,Yes,Medium,No,No,Yes,Yes,Yes
0.525,0.15,High,Yes,Low,Low,Male,Yes,Medium,Yes,Yes,No,Yes,Yes
0.65,0.266667,High,No,High,High,Male,Yes,High,Yes,Yes,Yes,Yes,Yes
0.2875,0.683333,None,No,High,High,Male,No,Low,Yes,No,No,Yes,Yes
0.1,0.166667,High,Yes,Medium,High,Female,No,Low,No,No,No,Yes,Yes
0.25,0.983333,Low,No,High,Low,Male,No,Medium,Yes,No,Yes,Yes,Yes
0.8625,0.116667,High,No,High,Medium,Female,Yes,Low,No,Yes,Yes,No,Yes
0.45,0.533333,High,No,Medium,High,Female,No,Medium,Yes,Yes,No,No,Yes
0.25,0.066667,Medium,Yes,Medium,Low,Female,Yes,Medium,Yes,Yes,Yes,No,Yes
0.6625,0.466667,None,Yes,Low,Medium,Female,No,Medium,Yes,Yes,Yes,No,Yes
0.575,0.1,None,No,Medium,Medium,Male,No,High,Yes,No,Yes,No,Yes
0.0125,0.883333,Medium,Yes,Low,High,Male,No,Medium,Yes,Yes,No,Yes,Yes
0.05,0.283333,Low,No,Medium,Medium,Male,Yes,High,Yes,Yes,Yes,No,Yes
0.1125,0.033333,High,Yes,Low,Medium,Male,Yes,High,Yes,Yes,Yes,Yes,Yes
0.325,0.766667,High,Yes,High,Medium,Female,No,Low,Yes,Yes,No,Yes,Yes
0.35,0.35,High,No,Low,Medium,Female,No,Medium,No,Yes,Yes,No,Yes
0.0375,0.816667,None,Yes,Medium,Low,Male,Yes,Medium,Yes,Yes,Yes,No,Yes
0.975,0.933333,Medium,Yes,Medium,Medium,Female,Yes,Low,Yes,Yes,Yes,No,Yes
0.45,0.1,Medium,Yes,High,Low,Male,Yes,Medium,No,No,No,Yes,Yes
0.65,0.666667,Low,No,High,High,Female,Yes,Low,No,Yes,Yes,No,Yes
0.575,0.5,Low,No,Medium,Low,Female,No,Medium,No,Yes,Yes,No,Yes
0.3875,0.133333,Medium,Yes,High,Medium,Female,No,Medium,No,No,No,No,Yes
0.4625,0.216667,Medium,No,High,Low,Male,No,Medium,No,Yes,Yes,Yes,Yes
0.1875,0.366667,Low,No,Low,Low,Male,Yes,Medium,Yes,Yes,Yes,Yes,Yes
0.725,0.416667,High,No,Medium,Low,Female,No,High,No,Yes,Yes,No,Yes
0.0875,0.4,High,Yes,Medium,Medium,Female,Yes,Medium,No,Yes,Yes,No,Yes
0.6375,0.5,Low,Yes,Low,Low,Female,Yes,High,Yes,Yes,No,No,Yes
0.25,0,Low,No,Low,Medium,Male,No,Medium,Yes,No,Yes,No,Yes
0.8125,0.716667,High,Yes,High,Low,Female,Yes,Low,No,Yes,Yes,Yes,Yes
0.35,0.033333,Low,Yes,High,Medium,Male,Yes,High,Yes,Yes,No,Yes,Yes
0.075,0.283333,Medium,No,High,Low,Female,Yes,Medium,No,No,Yes,Yes,Yes
0.125,0.55,High,No,Low,Medium,Female,No,High,No,No,No,No,Yes
0.0625,0.283333,Medium,Yes,Low,Low,Male,Yes,High,Yes,No,Yes,Yes,Yes
0.275,0.533333,None,Yes,High,Medium,Female,Yes,High,No,No,No,Yes,Yes
0.85,0.866667,Low,No,High,Medium,Male,Yes,High,No,No,No,Yes,Yes
0.8875,0.7,None,No,Medium,Low,Male,Yes,Low,Yes,No,Yes,Yes,Yes
0.8,0.766667,Low,Yes,High,Medium,Female,No,Low,Yes,No,Yes,Yes,Yes
0.6,0.85,Medium,No,High,Low,Female,Yes,Low,No,No,Yes,Yes,Yes
0.025,0.616667,Medium,Yes,High,Low,Female,No,Medium,Yes,Yes,No,No,Yes
0.0125,0.716667,None,Yes,High,High,Male,No,Low,No,No,No,No,Yes
0.95,0.35,High,No,Medium,Medium,Male,Yes,High,No,Yes,Yes,No,Yes
0.3375,0.25,High,Yes,Low,High,Female,No,Low,No,No,Yes,Yes,Yes
0.0375,0.85,High,No,High,Medium,Female,Yes,Low,Yes,Yes,Yes,Yes,Yes
0.2875,0.883333,Low,Yes,Medium,Low,Female,No,Low,No,Yes,No,Yes,Yes
0.1375,0.483333,None,Yes,Medium,Low,Female,Yes,Medium,No,No,Yes,Yes,Yes
0.9,0.116667,Medium,No,High,High,Male,No,Low,No,Yes,No,No,Yes
0.6125,0.3,None,Yes,Low,Low,Female,No,Medium,Yes,No,No,No,Yes
0.9,0.216667,None,No,Low,Medium,Female,Yes,High,Yes,No,No,No,Yes
0.2375,0.216667,High,Yes,Medium,Low,Female,Yes,Medium,No,No,No,Yes,Yes
0.9875,1,High,Yes,Medium,High,Female,No,Medium,Yes,Yes,No,Yes,Yes
0.65,0.85,Medium,No,Medium,High,Male,No,High,Yes,No,No,Yes,Yes
0.95,1,Medium,No,Medium,Low,Female,Yes,Medium,No,Yes,Yes,Yes,Yes
0.4625,0.966667,High,Yes,Low,High,Male,No,Low,Yes,No,Yes,Yes,Yes
0.625,0.033333,None,Yes,Medium,Low,Male,Yes,Medium,Yes,Yes,Yes,No,Yes
0.7375,0.35,High,No,Medium,Medium,Female,No,High,No,Yes,No,No,Yes
0.45,0.1,Low,Yes,High,Low,Male,Yes,High,No,Yes,No,Yes,Yes
0.8875,0.6,Low,No,High,Medium,Female,Yes,High,Yes,No,No,Yes,Yes
0.325,0.05,Low,Yes,Medium,Medium,Female,Yes,Low,No,No,No,No,Yes
0.75,0.716667,None,Yes,Low,Medium,Male,No,Medium,No,Yes,No,Yes,Yes
0.65,0.1,High,Yes,Low,Low,Female,No,Low,No,No,Yes,Yes,Yes
0.1125,0.3,Medium,No,High,Low,Male,No,High,Yes,No,Yes,No,Yes
0.675,0.916667,Medium,No,Medium,High,Male,Yes,Low,Yes,Yes,Yes,Yes,Yes
0.2,0.1,None,Yes,Medium,Medium,Male,Yes,Low,Yes,Yes,No,Yes,Yes
0.4125,0.816667,Medium,Yes,Medium,High,Male,Yes,Medium,No,Yes,No,Yes,Yes
0.7125,0.566667,None,Yes,Medium,High,Female,Yes,High,No,No,No,No,Yes
0.7,0.8,High,No,Medium,Low,Male,Yes,Medium,Yes,No,Yes,No,Yes
0.7375,0.3,None,No,Medium,Medium,Female,No,Low,No,Yes,No,Yes,Yes
0.1875,0.8,High,No,Medium,Medium,Female,Yes,Low,No,No,Yes,No,Yes
0.125,0.133333,Medium,Yes,Medium,Medium,Male,Yes,High,Yes,No,Yes,No,Yes
0.625,0.583333,Medium,Yes,High,Medium,Male,Yes,Medium,No,No,Yes,Yes,Yes
0.05,0.4,Low,Yes,High,Low,Male,No,Medium,Yes,Yes,Yes,Yes,Yes
0.3125,0.9,High,Yes,High,High,Male,No,High,Yes,Yes,No,Yes,Yes
0.8875,0.283333,Medium,No,Medium,Low,Male,Yes,Low,Yes,Yes,Yes,Yes,Yes
0.1875,0.166667,Medium,Yes,Medium,Low,Male,Yes,Medium,No,No,Yes,Yes,Yes
0.5625,0.216667,None,Yes,High,Low,Male,No,High,Yes,No,No,Yes,Yes
0.1625,0.55,Medium,No,Medium,Low,Male,No,High,Yes,No,No,No,Yes
0.8125,0.35,Medium,No,Medium,Medium,Male,Yes,High,No,No,No,Yes,Yes
0.3875,0.75,High,Yes,Medium,Low,Male,No,Medium,Yes,Yes,No,Yes,Yes
0.25,0.766667,High,Yes,Medium,High,Male,Yes,Medium,Yes,No,Yes,No,Yes
0.625,0.55,Low,No,Low,High,Male,No,Medium,Yes,No,No,Yes,Yes
0.95,0.533333,High,No,Low,High,Male,No,High,Yes,No,Yes,No,Yes
0.725,0.116667,Medium,Yes,Low,Medium,Female,Yes,High,Yes,Yes,No,No,Yes
0.0375,0,High,No,Low,High,Male,No,High,Yes,Yes,No,Yes,Yes
0.0625,0.7,Low,Yes,Medium,High,Male,No,Medium,No,No,No,No,Yes
0.025,0.4,Low,Yes,Medium,High,Female,No,Low,No,No,Yes,Yes,Yes
0.8875,0.033333,Medium,Yes,Medium,High,Female,Yes,Low,No,No,No,Yes,Yes
0.725,0.833333,Medium,No,High,High,Male,No,Low,No,No,Yes,No,Yes
0,0.8,High,Yes,Low,High,Male,Yes,Medium,No,Yes,No,Yes,Yes
0.0875,0.25,Low,No,Medium,Low,Female,Yes,Low,No,Yes,No,No,Yes
0.85,0.9,Low,No,High,Low,Male,No,Medium,No,No,No,Yes,Yes
0.9375,0.883333,Medium,No,Medium,Low,Female,Yes,Low,Yes,Yes,No,No,Yes
0.5375,0.766667,None,No,Medium,High,Female,Yes,Medium,Yes,No,No,Yes,Yes
0.3625,0.55,None,Yes,Medium,Low,Male,Yes,High,Yes,No,No,No,Yes
0.85,0.883333,Medium,Yes,Medium,Medium,Male,Yes,Medium,No,Yes,Yes,Yes,Yes
0.125,0.583333,None,No,Low,Low,Male,Yes,Low,Yes,Yes,Yes,Yes,Yes
0.875,0.133333,Medium,Yes,Medium,Low,Male,No,Medium,No,Yes,No,Yes,Yes
0.6875,0.95,Medium,Yes,Medium,Low,Male,Yes,Low,Yes,Yes,Yes,Yes,Yes
0.7875,0.3,None,Yes,Medium,Low,Female,Yes,High,Yes,Yes,Yes,No,Yes
0.425,0.666667,High,Yes,Medium,Low,Male,Yes,Low,Yes,Yes,Yes,No,Yes
0.501778,0.033333,Low,Yes,High,Medium,Male,No,Medium,Yes,Yes,No,No,Yes
0.25,0,Low,No,Low,Medium,Male,No,Medium,Yes,No,Yes,No,Yes
0.975,0.7,Low,No,High,Low,Female,No,Medium,No,Yes,No,Yes,Yes
0.4625,0.7,Medium,No,Low,High,Male,No,Medium,Yes,No,Yes,No,Yes
0.0125,0.533333,Low,No,High,High,Female,No,High,No,No,No,Yes,Yes
0.1875,0.2,None,Yes,Medium,Medium,Female,Yes,Low,No,No,Yes,Yes,Yes
0.1375,0.533333,None,Yes,High,Low,Female,Yes,High,Yes,No,No,No,Yes
0.3625,0.883333,None,No,Low,Low,Male,No,High,No,No,Yes,No,Yes
0.575,0.6,Medium,Yes,High,Low,Female,Yes,Medium,Yes,No,Yes,No,Yes
0.1,0.583333,None,No,Medium,High,Male,Yes,Medium,Yes,Yes,No,Yes,Yes
0.775,0.716667,High,Yes,High,High,Female,No,Medium,Yes,No,Yes,Yes,Yes
0.45,0.283333,High,No,High,Low,Female,Yes,High,Yes,Yes,No,Yes,Yes
0.9125,0.833333,High,No,High,High,Male,Yes,Medium,No,No,No,Yes,Yes
0.9875,0.95,High,No,High,Medium,Female,No,High,Yes,Yes,No,Yes,Yes
0.375,0.316667,Medium,No,Medium,Low,Female,Yes,Medium,Yes,Yes,Yes,No,Yes
0.8875,0.033333,High,No,Medium,Low,Male,Yes,Low,Yes,No,Yes,Yes,Yes
0.1125,0.05,Medium,Yes,Medium,High,Male,Yes,Medium,No,No,Yes,No,Yes
0.325,0.783333,High,No,High,Low,Female,No,High,No,Yes,No,No,Yes
0.925,0.083333,High,Yes,Medium,Medium,Female,Yes,Medium,No,Yes,No,No,Yes
0.0875,0.933333,Low,No,High,Low,Female,Yes,Low,Yes,Yes,No,Yes,Yes
0.6125,0.183333,Low,Yes,Medium,Low,Female,No,High,No,No,Yes,Yes,Yes
0.6125,0.183333,Low,Yes,Medium,Low,Female,No,High,No,No,Yes,Yes,Yes
0.075,0.1,None,Yes,Medium,Low,Female,No,Low,Yes,Yes,Yes,No,Yes
0.975,0.433333,Medium,Yes,High,Medium,Female,Yes,High,No,No,Yes,Yes,Yes
0.2375,0.166667,Low,Yes,Low,Medium,Female,No,Medium,Yes,Yes,Yes,Yes,Yes
0.3875,0.983333,Low,Yes,Medium,High,Male,No,High,No,No,No,No,Yes
0.85,0.716667,Medium,Yes,High,Low,Male,Yes,Low,No,Yes,No,No,Yes
0.15,0.766667,High,Yes,Medium,High,Female,No,Low,Yes,Yes,No,Yes,Yes
0.6375,0.183333,Low,Yes,Medium,High,Male,Yes,Low,Yes,No,No,Yes,Yes
0.6,0.533333,High,No,Medium,Low,Female,No,Medium,No,No,No,No,Yes
0.725,0.5,None,No,Medium,Low,Male,Yes,Medium,Yes,No,Yes,Yes,Yes
0.275,0.933333,Low,Yes,Low,Low,Male,No,High,No,Yes,Yes,Yes,Yes
0.8875,0.733333,None,No,Medium,Low,Female,Yes,Low,Yes,Yes,No,No,Yes
0.925,0.033333,Low,Yes,Low,Low,Female,No,High,No,Yes,Yes,Yes,Yes
0.8125,0.483333,High,Yes,Medium,Low,Male,No,Medium,No,No,Yes,No,Yes
0.0875,0.083333,Low,No,Medium,High,Female,No,High,No,Yes,Yes,Yes,Yes
0.75,0.416667,None,No,Low,Low,Female,Yes,Low,No,No,Yes,No,Yes
0.1,0.65,High,Yes,Medium,Low,Female,No,High,Yes,No,Yes,Yes,Yes
0.8,0.7,High,Yes,Medium,High,Female,No,High,Yes,Yes,No,No,Yes
0,0.566667,High,Yes,High,Low,Male,Yes,High,Yes,No,Yes,No,Yes
0.2375,0.116667,High,No,Low,Low,Female,No,Low,No,No,No,No,Yes
0.45,0.983333,None,No,Low,Low,Male,No,High,No,Yes,No,No,Yes
0.8125,0.55,Low,No,Low,Low,Female,Yes,Medium,Yes,No,No,No,Yes
0.2875,0.833333,Low,Yes,Low,Medium,Female,Yes,Low,No,Yes,Yes,No,Yes
0.0625,0.466667,Low,No,Low,High,Female,No,Medium,Yes,Yes,Yes,Yes,Yes
0.9875,0.516667,None,Yes,Medium,Low,Male,No,Low,Yes,Yes,No,No,Yes
0.025,0.266667,None,Yes,Low,Medium,Female,No,Low,Yes,Yes,No,No,Yes
0.2375,0.3,High,No,Medium,Medium,Male,Yes,High,No,No,No,No,Yes
0.5125,0.816667,Low,Yes,High,High,Female,No,Medium,Yes,No,Yes,Yes,Yes
0.875,0.516667,None,Yes,High,Medium,Female,No,Medium,No,Yes,No,No,Yes
0.2875,0.45,Low,No,Medium,Low,Female,No,High,No,No,Yes,No,Yes
0.65,0.866667,High,Yes,Low,High,Male,No,High,Yes,Yes,No,Yes,Yes
0.3125,0.516667,High,Yes,Low,Medium,Male,No,Low,No,No,No,No,Yes
0.325,0.1,None,Yes,High,High,Female,Yes,Medium,Yes,No,Yes,No,Yes
0.4625,0.083333,None,Yes,High,Low,Male,Yes,Medium,No,Yes,No,Yes,Yes
0.5375,0.45,Low,Yes,High,Medium,Male,No,High,Yes,No,Yes,No,Yes
0.15,0.066667,High,Yes,Low,Low,Female,Yes,Medium,No,Yes,No,No,Yes
0.75,0.383333,Low,Yes,Low,Medium,Female,No,High,No,No,No,No,Yes
0.2875,0.383333,None,No,Medium,High,Female,Yes,High,No,No,Yes,No,Yes
0.8625,0.683333,Low,No,High,High,Male,Yes,Low,Yes,Yes,Yes,No,Yes
0.3125,0.15,Low,No,Low,High,Male,No,Medium,Yes,Yes,Yes,No,Yes
0.4375,0.716667,High,No,Medium,High,Male,Yes,Medium,No,Yes,Yes,No,Yes
0.5125,0.266667,Medium,Yes,Low,Medium,Male,No,Medium,Yes,No,Yes,No,Yes
0.25,0.766667,High,Yes,Medium,High,Male,Yes,Medium,Yes,No,Yes,No,Yes
0.65,0.633333,High,No,Medium,High,Male,No,Medium,Yes,No,No,No,Yes
0.3375,0.716667,Low,No,High,High,Female,Yes,Medium,No,Yes,Yes,No,Yes
0.4875,0.95,Low,No,Low,Low,Male,No,High,Yes,Yes,No,No,Yes
0.7625,0.466667,High,No,High,High,Male,No,Medium,No,Yes,No,Yes,Yes
0.7,0.266667,None,No,High,High,Male,Yes,Medium,No,No,No,No,Yes
0.4125,0.2,None,No,Low,High,Male,Yes,Medium,No,Yes,Yes,Yes,Yes
0.8625,0.333333,None,No,High,High,Male,No,High,Yes,Yes,Yes,Yes,Yes
0.2375,0.55,Medium,Yes,Low,Medium,Male,Yes,High,Yes,No,Yes,No,Yes
0.9,0.683333,High,Yes,Low,Medium,Female,No,High,Yes,No,No,Yes,Yes
0.6375,0.95,High,Yes,Medium,High,Male,Yes,High,No,No,Yes,No,Yes
0.1,0.9,None,Yes,Low,Medium,Male,No,Medium,Yes,No,Yes,No,Yes
0.675,0.65,High,No,Medium,High,Female,No,Medium,Yes,Yes,Yes,No,Yes
0.4625,0.25,High,No,Low,Low,Male,No,Medium,Yes,Yes,Yes,No,Yes
0.525,0.066667,Low,Yes,Low,High,Female,No,High,No,Yes,Yes,Yes,Yes
0.025,0.4,Low,Yes,Medium,High,Female,No,Low,No,No,Yes,Yes,Yes
0.7875,0.283333,High,Yes,High,Low,Female,No,High,Yes,Yes,No,Yes,Yes
0.7125,0.2,Low,Yes,High,Low,Male,No,High,No,Yes,Yes,Yes,Yes
0.125,0.566667,Medium,No,Medium,High,Male,No,Low,Yes,No,No,Yes,Yes
0.9,0.85,None,Yes,Low,Medium,Female,No,Medium,No,No,No,Yes,Yes
0.725,0.1,None,No,Medium,Medium,Female,No,Low,No,Yes,No,Yes,Yes
0.875,0.5,Low,No,Low,Low,Female,Yes,High,No,Yes,Yes,No,Yes
0.8,0.433333,Medium,Yes,Medium,High,Female,No,Medium,No,Yes,No,No,Yes
0.925,0.316667,Low,No,Medium,High,Male,No,Low,No,No,No,Yes,Yes
1,0.916667,High,Yes,High,High,Male,No,Medium,No,No,Yes,Yes,Yes
0.9375,0.783333,None,Yes,High,High,Female,No,Medium,No,No,Yes,No,Yes
0.0125,0.416667,None,Yes,High,Low,Male,No,Low,Yes,Yes,No,Yes,Yes
1,0.583333,Medium,No,Medium,Low,Male,No,Medium,No,Yes,Yes,No,Yes
0.825,0.25,High,No,Low,Medium,Female,Yes,Low,Yes,No,Yes,No,Yes
0.0375,0.4,High,No,High,Medium,Male,Yes,Medium,Yes,Yes,No,No,Yes
0.4,0.566667,Low,No,High,Low,Female,No,High,Yes,Yes,Yes,Yes,Yes
0.3375,0.416667,Low,Yes,Low,Low,Female,Yes,High,Yes,Yes,No,No,Yes
0.4625,0.25,High,No,Low,Low,Male,No,Medium,Yes,Yes,Yes,No,Yes
0.3375,0.05,Medium,Yes,High,Medium,Male,Yes,Medium,Yes,Yes,Yes,Yes,Yes
0.625,0.033333,High,No,Low,High,Male,No,Medium,No,Yes,No,No,Yes
0.8875,0.533333,Medium,Yes,Medium,Low,Male,No,Medium,No,No,No,No,Yes
0.3,0.3,None,No,High,Medium,Female,Yes,Low,Yes,No,No,Yes,Yes
0.575,0.466667,Low,No,Medium,Low,Male,No,High,Yes,No,Yes,Yes,Yes
0.725,0,Medium,No,High,Low,Female,No,Low,Yes,Yes,Yes,No,Yes
0.8875,0.35,Low,Yes,High,High,Male,No,Medium,No,Yes,Yes,No,Yes
0.3875,0.583333,Medium,No,Medium,Medium,Male,Yes,High,No,Yes,Yes,Yes,Yes
0.9125,0.4,Low,No,High,Low,Male,No,High,Yes,No,Yes,Yes,Yes
0.5625,0.216667,None,Yes,High,Low,Male,No,High,Yes,No,No,Yes,Yes
0.8,0.916667,High,No,High,Low,Female,Yes,High,Yes,Yes,Yes,Yes,Yes
0.6,0.716667,Low,Yes,Medium,Low,Male,No,Low,Yes,Yes,No,No,Yes
0.3375,0.45,Medium,Yes,High,High,Female,Yes,Low,No,Yes,Yes,No,Yes
0.8875,0.2,Medium,Yes,Low,High,Female,No,Medium,Yes,No,No,Yes,Yes
0.9125,0.2,None,Yes,Medium,High,Male,Yes,Medium,No,No,No,Yes,Yes
0.2375,0.533333,Medium,No,High,High,Female,No,Low,No,No,No,No,Yes
0.5625,0.7,Medium,Yes,Medium,High,Male,Yes,High,Yes,No,Yes,No,Yes
0.8,0.016667,None,Yes,Low,High,Female,No,High,No,Yes,Yes,Yes,Yes
0.85,0.916667,Low,Yes,Medium,High,Male,No,Low,No,Yes,No,No,Yes
0.25,0.983333,Low,No,High,Low,Female,No,Low,Yes,Yes,Yes,Yes,Yes
0.1,0.033333,Low,No,Medium,Low,Male,No,Medium,No,Yes,No,No,Yes
0.625,0.633333,None,Yes,Low,High,Female,No,High,No,Yes,No,No,Yes
0.0625,0.566667,Low,No,Low,Low,Male,Yes,High,No,Yes,Yes,Yes,Yes
0.5125,0.633333,High,No,High,Medium,Female,No,High,Yes,Yes,No,Yes,Yes
0.325,0.383333,None,Yes,High,High,Female,Yes,Medium,Yes,No,No,No,Yes
0.775,0.266667,None,Yes,Medium,Medium,Female,Yes,Medium,Yes,Yes,No,No,Yes
0.225,1,High,No,High,Medium,Female,No,Low,Yes,No,No,Yes,Yes
0.4625,0.3,Low,Yes,High,Medium,Male,No,Medium,Yes,No,Yes,Yes,Yes
0.6875,0.866667,Medium,No,Low,Medium,Male,No,High,Yes,No,No,No,Yes
0.075,0.35,Medium,No,Medium,High,Female,No,Medium,No,No,Yes,No,Yes
0.575,0.6,High,No,Low,Low,Male,No,Medium,No,Yes,Yes,No,Yes
0.15,0.483333,Medium,Yes,High,High,Male,No,Low,No,No,Yes,Yes,Yes
0.6,0.883333,Low,Yes,High,Medium,Male,No,High,Yes,Yes,Yes,No,Yes
0.7375,0.2,Medium,Yes,Medium,High,Male,Yes,High,No,Yes,No,No,Yes
0.3,0.766667,High,No,High,Low,Male,Yes,Low,Yes,No,Yes,Yes,Yes
0.8125,0.4,None,Yes,High,High,Male,Yes,Medium,Yes,Yes,Yes,No,Yes
0.0375,0.5,Medium,Yes,High,High,Male,No,Low,No,No,Yes,Yes,Yes
0.625,0.616667,Medium,Yes,Medium,High,Male,No,Medium,Yes,Yes,Yes,Yes,Yes
0.55,0.166667,High,Yes,Medium,Medium,Female,Yes,Low,Yes,Yes,No,No,Yes
0.9125,0.483333,Low,Yes,Medium,High,Female,Yes,Medium,No,Yes,Yes,Yes,Yes
0.7375,0.25,High,No,High,High,Female,Yes,Medium,No,No,Yes,Yes,Yes
0.2625,0.383333,None,No,Low,Medium,Female,No,Medium,Yes,No,Yes,No,Yes
0.6625,0.85,None,No,Medium,Low,Male,Yes,Medium,Yes,No,No,No,Yes
0.375,0.9,Low,Yes,Medium,Low,Male,Yes,Medium,No,Yes,Yes,No,Yes
0.85,0.916667,Low,Yes,Medium,High,Male,No,Low,No,Yes,No,No,Yes
0.575,0.733333,Medium,Yes,Low,Medium,Female,No,High,Yes,Yes,No,Yes,Yes
0.7875,0.65,Medium,Yes,Low,High,Female,Yes,High,No,Yes,Yes,No,Yes
0.375,0.116667,High,No,Medium,Medium,Male,Yes,High,Yes,Yes,No,No,Yes
0.825,0.533333,None,Yes,Low,Low,Female,Yes,High,No,No,Yes,No,Yes
0.3,0.95,None,Yes,Low,Medium,Female,Yes,Low,No,Yes,No,Yes,Yes
0.025,0.866667,Low,Yes,Low,Medium,Male,Yes,High,Yes,Yes,No,No,Yes
0.7125,0.616667,Low,Yes,Medium,Low,Female,No,High,Yes,No,Yes,No,Yes
0.175,0.733333,None,Yes,Medium,Medium,Male,No,High,Yes,No,Yes,Yes,Yes
0.775,0.366667,Low,No,Medium,High,Female,Yes,High,Yes,No,Yes,Yes,Yes
0.45,0.05,High,No,Low,High,Female,Yes,Low,Yes,No,Yes,No,Yes
0.95,0.25,Medium,No,Low,High,Male,Yes,Medium,Yes,No,Yes,No,Yes
0.625,0.316667,High,Yes,Low,High,Male,No,High,Yes,Yes,Yes,Yes,Yes
0.7625,0.333333,Low,No,Medium,Medium,Male,Yes,High,Yes,Yes,Yes,Yes,Yes
0.05,1,High,Yes,Low,Low,Female,Yes,Medium,Yes,No,No,No,Yes
0,0.8,High,Yes,Low,High,Male,Yes,Medium,No,Yes,No,Yes,Yes
0.975,0.433333,Medium,Yes,High,Medium,Female,Yes,High,No,No,Yes,Yes,Yes
0.025,0.6,Medium,No,Low,Low,Female,Yes,Medium,Yes,Yes,No,No,Yes
0.0625,0,Medium,Yes,High,High,Female,Yes,Low,Yes,Yes,No,Yes,Yes
0.2,0.783333,None,Yes,Medium,Medium,Female,No,High,Yes,Yes,No,No,Yes
0.1875,0.15,Low,No,Low,Low,Male,Yes,Medium,Yes,No,No,No,Yes
0.0125,0.183333,None,No,Low,Low,Male,No,Medium,No,Yes,Yes,Yes,Yes
0.125,0,Low,Yes,High,Medium,Male,No,Low,Yes,No,No,No,Yes
0.7875,0.033333,High,No,Medium,Medium,Male,No,Low,No,Yes,No,Yes,Yes
0.0375,0.483333,None,Yes,High,Medium,Male,No,Medium,Yes,No,Yes,No,Yes
0.525,0.533333,Low,No,Medium,Medium,Male,Yes,Medium,No,Yes,No,No,Yes
0.85,0.033333,Low,No,Medium,High,Male,No,Low,Yes,Yes,No,No,Yes
0.325,0.416667,None,Yes,Medium,Medium,Female,Yes,Low,Yes,Yes,Yes,Yes,Yes
0.6625,0.216667,High,No,Medium,Medium,Female,Yes,High,Yes,Yes,No,No,Yes
0.175,0.133333,Medium,No,Medium,High,Male,Yes,Low,Yes,Yes,Yes,No,Yes
0.25,0.85,Low,Yes,Low,Low,Male,Yes,Low,No,Yes,No,Yes,Yes
0.7875,0.083333,High,No,Medium,High,Female,Yes,Low,No,Yes,No,Yes,Yes
0.05,0.966667,None,No,Medium,Low,Female,Yes,Low,No,Yes,No,Yes,Yes
0.425,0.633333,None,Yes,Low,Medium,Female,Yes,Medium,Yes,No,No,No,Yes
0.2375,0.75,High,No,Medium,High,Female,No,High,Yes,Yes,No,Yes,Yes
0.6125,0.75,Low,Yes,High,Medium,Female,No,Medium,Yes,Yes,No,Yes,Yes
0.05,0.2,Medium,No,Medium,High,Female,No,High,Yes,Yes,Yes,Yes,Yes
0.1125,0.25,None,Yes,Low,Medium,Male,Yes,Medium,No,No,No,Yes,Yes
0.0625,0.366667,Low,No,Medium,High,Male,No,Medium,No,No,Yes,Yes,Yes
0.65,0.666667,Low,No,High,High,Female,Yes,Low,No,Yes,Yes,No,Yes
0.0375,0.816667,None,No,Medium,Medium,Male,No,High,No,No,No,No,Yes
0.2875,0,Medium,Yes,Low,Medium,Female,Yes,High,No,Yes,No,Yes,Yes
0.4375,0.283333,High,No,Low,Low,Male,No,Low,Yes,Yes,No,Yes,Yes
0.3625,0.116667,None,Yes,High,High,Male,No,High,Yes,Yes,No,Yes,Yes
0.25,0.6,High,Yes,Low,Medium,Male,No,Medium,Yes,Yes,Yes,No,Yes
0.7625,0.116667,Medium,No,Medium,Low,Male,No,Low,No,Yes,No,No,Yes
0.0875,0.4,High,Yes,Medium,Medium,Female,Yes,Medium,No,Yes,Yes,No,Yes
0.9125,0.016667,None,Yes,Low,Medium,Female,Yes,High,No,No,Yes,Yes,Yes
0.9875,0.516667,None,Yes,Medium,Low,Male,No,Low,Yes,Yes,No,No,Yes
0.4125,0.866667,None,No,Medium,Low,Male,Yes,Medium,No,Yes,No,Yes,Yes
0.5625,0.183333,Low,Yes,Medium,High,Male,Yes,Low,No,No,Yes,Yes,Yes
0.025,0.6,Medium,No,Low,Low,Female,Yes,Medium,Yes,Yes,No,No,Yes
0.2875,0.383333,None,No,Medium,High,Female,Yes,High,No,No,Yes,No,Yes
0.2625,0.95,None,Yes,Medium,Low,Male,No,Low,No,Yes,No,Yes,Yes
0.9375,0.333333,None,Yes,Medium,Medium,Female,Yes,High,No,Yes,Yes,No,Yes
0.15,0.766667,High,Yes,Medium,High,Female,No,Low,Yes,Yes,No,Yes,Yes
0.45,0.516667,Low,No,High,Medium,Female,Yes,Low,No,No,No,No,Yes
0.9625,0.8,None,No,High,Low,Female,No,High,Yes,No,Yes,No,Yes
0.9,0.85,High,Yes,High,Medium,Male,Yes,Medium,Yes,Yes,Yes,Yes,Yes
0.7875,0.083333,High,No,Medium,High,Female,Yes,Low,No,Yes,No,Yes,Yes
0.8375,0.983333,Low,Yes,High,High,Female,No,Medium,No,No,Yes,No,Yes
0.7875,0.933333,Low,No,Medium,Medium,Male,No,Low,Yes,Yes,Yes,No,Yes
0.0875,0.233333,None,Yes,High,Low,Male,No,Low,No,Yes,No,Yes,Yes
0.675,0.066667,Medium,Yes,Low,High,Female,Yes,Medium,Yes,No,No,Yes,Yes
0.075,0.2,High,Yes,Low,Medium,Male,Yes,High,Yes,Yes,Yes,No,Yes
0.575,0.316667,None,Yes,High,Low,Female,Yes,Low,No,No,Yes,No,Yes
0.6875,0.966667,Medium,No,Medium,Low,Male,No,High,No,Yes,Yes,No,Yes
0.2875,0.366667,Low,Yes,Low,High,Male,Yes,High,No,No,No,No,Yes
0.3375,0.133333,High,No,High,High,Male,Yes,Low,Yes,Yes,Yes,No,Yes
0.2375,0.05,Medium,Yes,High,Medium,Male,No,Medium,Yes,No,Yes,Yes,Yes
0.925,0.483333,None,No,Low,High,Male,No,High,No,No,Yes,Yes,Yes
0.125,0.55,High,No,Low,Medium,Female,No,High,No,No,No,No,Yes
0.575,0.5,Low,No,Medium,Low,Female,No,Medium,No,Yes,Yes,No,Yes
0.5,0.266667,High,No,Low,Low,Female,Yes,Medium,Yes,Yes,Yes,Yes,Yes
0.2875,0.383333,Low,Yes,Low,Low,Female,No,Medium,Yes,Yes,Yes,No,Yes
0.3375,0.716667,Low,No,High,High,Female,Yes,Medium,No,Yes,Yes,No,Yes
1,0.4,Low,Yes,Low,High,Female,No,High,No,Yes,Yes,No,Yes
0.4625,0.366667,Medium,No,Low,Low,Female,Yes,High,No,No,Yes,Yes,Yes
0.7,0.133333,Low,Yes,Low,High,Female,No,Low,Yes,No,Yes,Yes,Yes
0.1875,0.2,Medium,Yes,Medium,High,Female,No,High,No,Yes,Yes,Yes,Yes
0.95,0.2,None,No,Medium,Medium,Female,No,Low,No,Yes,Yes,No,Yes
0.8125,0.016667,Low,No,Low,High,Male,Yes,Low,No,No,Yes,Yes,Yes
0.775,0.133333,High,Yes,Low,Low,Male,No,Medium,No,Yes,No,Yes,Yes
0.775,0.883333,Low,No,Medium,Medium,Male,Yes,Low,Yes,Yes,Yes,Yes,Yes
0.7,0.716667,High,No,High,Medium,Female,Yes,Medium,Yes,Yes,No,Yes,Yes
0.2,0.016667,Low,Yes,Low,Low,Male,No,Low,No,Yes,Yes,No,Yes
0.3125,0.7,None,No,Low,Low,Female,No,High,Yes,Yes,No,Yes,Yes
0.65,0.216667,Medium,No,Medium,Low,Male,Yes,High,Yes,Yes,No,No,Yes
0.875,0.5,Low,No,Low,Low,Female,Yes,High,No,Yes,Yes,No,Yes
0.7125,0.316667,None,No,High,Low,Male,No,Medium,Yes,Yes,Yes,Yes,Yes
0.7875,1,None,Yes,High,High,Female,Yes,High,No,No,Yes,No,Yes
0.3875,0.133333,Medium,Yes,High,Medium,Female,No,Medium,No,No,No,No,Yes
0.9875,0,None,Yes,Medium,High,Female,No,Low,No,No,Yes,No,Yes
1,0.833333,High,Yes,Medium,Low,Female,Yes,Low,Yes,Yes,Yes,No,Yes
0.525,0.483333,Medium,Yes,High,Medium,Female,Yes,Medium,No,No,No,Yes,Yes
0.3375,0.133333,High,No,High,High,Male,Yes,Low,Yes,Yes,Yes,No,Yes
0.3375,0.933333,High,No,Medium,Low,Female,No,High,Yes,No,Yes,Yes,Yes
0.45,0.233333,None,No,Low,Medium,Female,Yes,Medium,Yes,Yes,No,No,Yes
0.85,0.883333,Medium,Yes,Medium,Medium,Male,Yes,Medium,No,Yes,Yes,Yes,Yes
0.7875,0.066667,Medium,No,High,Medium,Male,No,Medium,Yes,No,Yes,Yes,Yes
0.5125,0.933333,None,Yes,Medium,Low,Female,No,Medium,Yes,No,Yes,No,Yes
0.05,0.516667,Medium,No,Medium,Medium,Male,No,Medium,Yes,No,Yes,No,Yes
0.375,0.366667,High,No,Low,Low,Female,Yes,High,No,Yes,No,Yes,Yes
0.25,0.383333,None,No,Medium,Medium,Male,No,Low,No,Yes,Yes,Yes,Yes
1,0.466667,Medium,Yes,Medium,High,Male,No,Medium,Yes,No,No,No,Yes
0.3625,0.466667,None,Yes,Medium,High,Female,No,Low,Yes,Yes,No,Yes,Yes
0.2875,0.45,Low,No,Medium,Low,Female,No,High,No,No,Yes,No,Yes
0.05,0.25,Medium,No,High,High,Female,No,High,Yes,No,Yes,No,Yes
1,0.4,Low,Yes,Low,High,Female,No,High,No,Yes,Yes,No,Yes
0.0125,0.983333,Medium,No,High,Medium,Male,No,High,Yes,No,Yes,No,Yes
0.5125,0.816667,Low,Yes,High,High,Female,No,Medium,Yes,No,Yes,Yes,Yes
0.5125,0.333333,Medium,Yes,High,Low,Male,Yes,Medium,No,No,Yes,No,Yes
0.4,0.566667,Low,No,High,Low,Female,No,High,Yes,Yes,Yes,Yes,Yes
0.45,0.5,High,No,Low,Low,Female,Yes,High,Yes,Yes,No,Yes,Yes
0.9125,0.7,Low,No,Low,Low,Female,Yes,Low,Yes,No,No,No,Yes
0.4,0.466667,None,No,High,Low,Female,No,Low,Yes,Yes,No,Yes,Yes
0.8625,0.133333,High,Yes,Medium,High,Female,Yes,Medium,Yes,Yes,No,Yes,Yes
0.5125,0.766667,Low,No,Medium,High,Male,Yes,High,Yes,Yes,No,No,Yes
0.975,0.066667,None,Yes,High,Low,Female,Yes,Medium,Yes,Yes,Yes,No,Yes
0.7125,0.066667,Low,Yes,Low,High,Female,Yes,Low,Yes,Yes,Yes,No,Yes
0.4,0.383333,None,No,Low,High,Male,No,Low,Yes,Yes,Yes,No,Yes
0.5375,0.483333,High,No,Medium,High,Female,Yes,Low,No,Yes,No,No,Yes
0.525,0.833333,Low,Yes,High,Medium,Female,Yes,Low,Yes,Yes,Yes,Yes,Yes
0.2375,0.816667,Medium,No,Medium,Low,Male,No,High,No,No,No,No,Yes
0.1875,0.2,None,Yes,Medium,Medium,Female,Yes,Low,No,No,Yes,Yes,Yes
0.9125,0.433333,High,Yes,Low,Low,Male,No,High,Yes,No,Yes,Yes,Yes
0.6,0.716667,Low,No,Low,High,Female,No,Low,No,Yes,No,Yes,Yes
0.8625,0.933333,Low,Yes,High,High,Male,Yes,Low,Yes,Yes,No,Yes,Yes
0.725,0.633333,Low,No,Medium,High,Male,Yes,High,Yes,No,No,No,Yes
0.0125,0.7,Medium,Yes,High,High,Female,Yes,Medium,Yes,Yes,Yes,Yes,Yes
0.45,0.266667,Low,Yes,Low,Medium,Male,No,Low,Yes,Yes,Yes,Yes,Yes
0.3625,0.633333,None,Yes,Medium,High,Male,No,Medium,No,Yes,No,No,Yes
0.4,0.1,Low,Yes,High,Low,Male,No,Low,Yes,No,No,No,Yes
0.3,0.216667,None,Yes,High,High,Female,Yes,Medium,Yes,No,Yes,No,Yes
0.1,0.2,High,Yes,High,Low,Male,No,High,Yes,No,Yes,Yes,Yes
0.975,0.7,Low,No,High,Low,Female,No,Medium,No,Yes,No,Yes,Yes
0.4125,0.15,Medium,No,Medium,Medium,Male,Yes,Low,No,No,No,No,Yes
0.0625,0.833333,Medium,Yes,High,Low,Male,No,Low,No,Yes,Yes,No,Yes
0.575,0.866667,Low,No,Medium,High,Female,Yes,Low,Yes,No,No,Yes,Yes
0.1625,0.283333,Medium,No,High,High,Male,No,Medium,Yes,Yes,Yes,No,Yes
0.0125,0.233333,High,No,Medium,Low,Female,No,High,Yes,Yes,No,No,Yes
0.575,0.316667,Medium,Yes,Low,Low,Male,No,Medium,Yes,No,No,Yes,Yes
0.1875,0.066667,Medium,No,High,Low,Female,Yes,Low,Yes,No,Yes,Yes,Yes
